 ASCII 1
!File started at: 2008/07/12 08:39:11
 Degrees of freedom: 
 displacement 3  :fs
 stress 6  :fs
 principal stress 3  :fs
 principal angle 9  :fs
 strain 6  :fs
 principal strain 3  :fs
 displacement 1 1  :fs
 displacement 2 1  :fs
 displacement 3 1  :fs
 stress 1 1  :fs
 stress 2 1  :fs
 stress 3 1  :fs
 stress 4 1  :fs
 stress 5 1  :fs
 stress 6 1  :fs
 vonmises 1  :fs
 principal stress 1 1  :fs
 principal stress 2 1  :fs
 principal stress 3 1  :fs
 tresca 1  :fs
 principal angle 1 1  :fs
 principal angle 2 1  :fs
 principal angle 3 1  :fs
 principal angle 4 1  :fs
 principal angle 5 1  :fs
 principal angle 6 1  :fs
 principal angle 7 1  :fs
 principal angle 8 1  :fs
 principal angle 9 1  :fs
 strain 1 1  :fs
 strain 2 1  :fs
 strain 3 1  :fs
 strain 4 1  :fs
 strain 5 1  :fs
 strain 6 1  :fs
 principal strain 1 1  :fs
 principal strain 2 1  :fs
 principal strain 3 1  :fs
 Total DOFs:  32
 Number Of Nodes:  245
Time:       1      1 0.100000000000E+001
displacement 1
Perm:          245          245
          1          1
          2          2
          3          3
          4          4
          5          5
          6          6
          7          7
          8          8
          9          9
         10         10
         11         11
         12         12
         13         13
         14         14
         15         15
         16         16
         17         17
         18         18
         19         19
         20         20
         21         21
         22         22
         23         23
         24         24
         25         25
         26         26
         27         27
         28         28
         29         29
         30         30
         31         31
         32         32
         33         33
         34         34
         35         35
         36         36
         37         37
         38         38
         39         39
         40         40
         41         41
         42         42
         43         43
         44         44
         45         45
         46         46
         47         47
         48         48
         49         49
         50         50
         51         51
         52         52
         53         53
         54         54
         55         55
         56         56
         57         57
         58         58
         59         59
         60         60
         61         61
         62         62
         63         63
         64         64
         65         65
         66         66
         67         67
         68         68
         69         69
         70         70
         71         71
         72         72
         73         73
         74         74
         75         75
         76         76
         77         77
         78         78
         79         79
         80         80
         81         81
         82         82
         83         83
         84         84
         85         85
         86         86
         87         87
         88         88
         89         89
         90         90
         91         91
         92         92
         93         93
         94         94
         95         95
         96         96
         97         97
         98         98
         99         99
        100        100
        101        101
        102        102
        103        103
        104        104
        105        105
        106        106
        107        107
        108        108
        109        109
        110        110
        111        111
        112        112
        113        113
        114        114
        115        115
        116        116
        117        117
        118        118
        119        119
        120        120
        121        121
        122        122
        123        123
        124        124
        125        125
        126        126
        127        127
        128        128
        129        129
        130        130
        131        131
        132        132
        133        133
        134        134
        135        135
        136        136
        137        137
        138        138
        139        139
        140        140
        141        141
        142        142
        143        143
        144        144
        145        145
        146        146
        147        147
        148        148
        149        149
        150        150
        151        151
        152        152
        153        153
        154        154
        155        155
        156        156
        157        157
        158        158
        159        159
        160        160
        161        161
        162        162
        163        163
        164        164
        165        165
        166        166
        167        167
        168        168
        169        169
        170        170
        171        171
        172        172
        173        173
        174        174
        175        175
        176        176
        177        177
        178        178
        179        179
        180        180
        181        181
        182        182
        183        183
        184        184
        185        185
        186        186
        187        187
        188        188
        189        189
        190        190
        191        191
        192        192
        193        193
        194        194
        195        195
        196        196
        197        197
        198        198
        199        199
        200        200
        201        201
        202        202
        203        203
        204        204
        205        205
        206        206
        207        207
        208        208
        209        209
        210        210
        211        211
        212        212
        213        213
        214        214
        215        215
        216        216
        217        217
        218        218
        219        219
        220        220
        221        221
        222        222
        223        223
        224        224
        225        225
        226        226
        227        227
        228        228
        229        229
        230        230
        231        231
        232        232
        233        233
        234        234
        235        235
        236        236
        237        237
        238        238
        239        239
        240        240
        241        241
        242        242
        243        243
        244        244
        245        245
 0.
 0.
 0.
 0.
 0.
 0.
 0.
 0.
 0.
 -5.500370713610797E-13
 -1.4542656541910177E-12
 -1.1839300222792473E-12
 -1.0207305665504488E-12
 -1.2006343094539015E-12
 -2.4024256878539746E-12
 -2.1561306109697615E-12
 -2.677663026918103E-12
 -2.0184830575913283E-12
 -1.9677605664919825E-12
 -1.3641344927149748E-12
 -1.1778460630279985E-12
 -8.804095706576523E-13
 -8.572976506128173E-13
 -4.399845142115566E-12
 -4.741724689178578E-12
 -2.0929921945502344E-12
 -6.179137652283612E-13
 -7.77848730155512E-13
 -3.8734840558195445E-12
 -3.727662630249235E-12
 -3.484386348234364E-12
 -3.4893010337224017E-12
 -2.0757884946678875E-12
 -7.999410715650645E-13
 -2.1876013934554792E-14
 -3.32240427732235E-13
 -7.489618831647875E-13
 2.2225696577451426E-12
 1.7873306673635892E-12
 3.3982600486597486E-13
 -2.9717919235632653E-12
 -3.360002588247173E-12
 1.0020955006147679E-11
 1.054782671328632E-11
 1.0453705215842732E-11
 7.656828878647875E-12
 2.119529469812122E-12
 -2.58650193870131E-12
 -6.292546296347772E-12
 -6.191253294948719E-12
 -5.949369689493341E-12
 1.416214661366173E-11
 1.2400434749642509E-11
 3.4015708876684695E-12
 -8.92610016115993E-12
 -1.0217153298601958E-11
 1.5245963252203357E-11
 1.6615273895932568E-11
 1.3638324840575639E-11
 1.7247411615802313E-11
 4.317758164728851E-12
 -5.911615260299407E-12
 -9.297571083856531E-12
 -1.0322935496080213E-11
 -9.722874933718822E-12
 0.
 0.
 0.
 0.
 0.
 -3.0539048905759924E-12
 -3.107655988057937E-12
 -2.454212675421964E-12
 -1.8001402654696646E-12
 -1.7744655624462356E-12
 -7.766327210761287E-12
 -6.871913300737497E-12
 -5.640577955643392E-12
 -3.961187653117337E-12
 -4.210423972634795E-12
 2.8361370687342967E-12
 2.6389130966805592E-12
 -4.193857842677119E-12
 -1.06129647169826E-11
 -1.061483144449867E-11
 7.47338133761098E-12
 5.841950637934881E-12
 -2.4465821550733858E-12
 -1.3084619499089992E-11
 -1.3785261788450914E-11
 0.
 0.
 0.
 0.
 0.
 0.
 0.
 0.
 0.
 -1.366475325907204E-12
 -1.6152095899855337E-12
 -1.4225190614436134E-12
 -1.3517803480245957E-12
 -1.4845270242392627E-12
 -3.5828204635426427E-12
 -3.3762426978401867E-12
 -3.551406865082717E-12
 -3.139709960500046E-12
 -2.966793133650526E-12
 -2.580743513249784E-12
 -2.485038783497014E-12
 -2.346523577535171E-12
 -2.834994352161891E-12
 -8.618788403964428E-12
 -7.649716590363135E-12
 -5.9282870528061915E-12
 -5.081932009108719E-12
 -4.763447430341437E-12
 -1.1689505307164737E-11
 -1.1414853109291963E-11
 -1.0542950570149228E-11
 -1.0428242745152332E-11
 -9.153919631941976E-12
 -8.338655511287965E-12
 -7.898855396013754E-12
 -7.930592388550129E-12
 -7.834064282051661E-12
 -9.496415045801927E-12
 -9.475379411080302E-12
 -1.0126423018378753E-11
 -1.2194766663338173E-11
 -1.2084386036153658E-11
 -4.190229475758201E-12
 -4.079399223082512E-12
 -4.924238274361074E-12
 -7.298557870045718E-12
 -1.0421129691080153E-11
 -1.3102863954266429E-11
 -1.5554342312970043E-11
 -1.5080362453740015E-11
 -1.582714352204532E-11
 -1.0196556063671666E-12
 -2.9294755685000277E-12
 -9.638394302399002E-12
 -1.7469070609265317E-11
 -1.8413311444494032E-11
 -9.590869870731344E-14
 9.305374735585521E-13
 -1.5707506827903938E-12
 -2.280285583058415E-12
 -8.765610754866948E-12
 -1.489762554968634E-11
 -1.765721953295425E-11
 -1.7952008371888593E-11
 -1.8547743970678473E-11
 0.
 0.
 0.
 0.
 0.
 -4.075591174648576E-12
 -4.122704674329083E-12
 -3.552373599151472E-12
 -2.9593213401057574E-12
 -3.18577765813099E-12
 -1.520679950448155E-11
 -1.4281676080270406E-11
 -1.3111986251572142E-11
 -1.1867680467834373E-11
 -1.148052346106098E-11
 -1.1065582083715585E-11
 -1.2110466908208309E-11
 -1.6754086122312448E-11
 -1.951646630826403E-11
 -1.943927382847785E-11
 -5.9698726165267445E-12
 -7.804113766475449E-12
 -1.5964945287980556E-11
 -2.2424269067368915E-11
 -2.248722284022039E-11
 0.
 0.
 0.
 0.
 0.
 0.
 0.
 0.
 0.
 -2.184683149011893E-12
 -1.7005717063446967E-12
 -1.577472771990325E-12
 -1.700831075012176E-12
 -1.2682387215309797E-12
 -4.607165849391379E-12
 -4.808680467007302E-12
 -4.514857570277667E-12
 -4.279743623912707E-12
 -4.049069774577183E-12
 -3.738939040653976E-12
 -3.4895280889021245E-12
 -3.485121772951512E-12
 -3.3773969297608424E-12
 -1.2698995303135083E-11
 -1.0575067965015168E-11
 -9.87557344080873E-12
 -9.99981192948955E-12
 -8.94173918490522E-12
 -1.8726078958591414E-11
 -1.9142737015760306E-11
 -1.8244203555258912E-11
 -1.7729888175582808E-11
 -1.7054732136767555E-11
 -1.562143464516776E-11
 -1.5858897127778218E-11
 -1.4605214693669977E-11
 -1.5210575843192465E-11
 -2.144029388464242E-11
 -2.0916376731589158E-11
 -1.991775055323437E-11
 -2.193422214074975E-11
 -2.1197316259261313E-11
 -1.782733907644587E-11
 -1.834573507631622E-11
 -1.92621504170323E-11
 -2.2971131498451327E-11
 -2.316002300819421E-11
 -2.429353692188595E-11
 -2.369379474106366E-11
 -2.4224158715911215E-11
 -2.369054657158269E-11
 -1.621099005351908E-11
 -1.8316739295268258E-11
 -2.2803485216295714E-11
 -2.5927064425017997E-11
 -2.5370414554550156E-11
 -1.2075975419740578E-11
 -1.2648823329736885E-11
 -1.3491509965510187E-11
 -1.822050078979308E-11
 -2.3110912823657606E-11
 -2.5059760737859103E-11
 -2.7276213729409544E-11
 -2.6307606543687646E-11
 -2.6304976791996714E-11
displacement 2
Perm: use previous
 0.
 0.
 0.
 0.
 0.
 0.
 0.
 0.
 0.
 0.00008333336604186947
 0.00008333336849275964
 0.00008333337065677896
 0.00008333337348369038
 0.00008333337544164917
 0.00016666711891545236
 0.00016666712246784889
 0.00016666712319032462
 0.00016666712647945
 0.00016666712805595173
 0.00016666713131573314
 0.00016666713380931664
 0.0001666671364412043
 0.00016666713630033686
 0.00033333315816534736
 0.0003333331623950812
 0.0003333331690117767
 0.00033333317718296877
 0.0003333331816221392
 0.000500000171021468
 0.0005000001715898565
 0.0005000001739471259
 0.0005000001774245458
 0.000500000181611124
 0.0005000001853250355
 0.0005000001901366918
 0.0005000001929444104
 0.0005000001954177994
 0.0006666671289446051
 0.0006666671290249726
 0.000666667135400286
 0.0006666671413386778
 0.0006666671452112588
 0.0008333330751913101
 0.0008333330733801889
 0.000833333073024213
 0.0008333330762355202
 0.0008333330778701858
 0.0008333330797057461
 0.0008333330806194719
 0.0008333330815423785
 0.0008333330829071305
 0.000916667038444697
 0.000916667036819903
 0.0009166670395145841
 0.0009166670406517152
 0.0009166670421722005
 0.001
 0.001
 0.001
 0.001
 0.001
 0.001
 0.001
 0.001
 0.001
 0.
 0.
 0.
 0.
 0.
 0.0001666670564434151
 0.00016666705991924769
 0.00016666706283822302
 0.00016666706603980598
 0.00016666706777052244
 0.0005000000852310087
 0.0005000000863450222
 0.000500000089957348
 0.0005000000954559952
 0.0005000000995577956
 0.0008333330391821383
 0.0008333330363111609
 0.0008333330377764519
 0.0008333330403440532
 0.0008333330429451734
 0.001
 0.001
 0.001
 0.001
 0.001
 0.
 0.
 0.
 0.
 0.
 0.
 0.
 0.
 0.
 0.00008333329795272079
 0.00008333329942840752
 0.00008333329988522838
 0.0000833333003165729
 0.00008333330135830217
 0.0001666669960967109
 0.0001666669982134462
 0.00016666699875452626
 0.00016666699952474194
 0.00016666699962882158
 0.00016666700004198078
 0.0001666670004730315
 0.0001666670013771771
 0.00016666700185115568
 0.0003333329970401824
 0.00033333299910650303
 0.0003333329996135169
 0.00033333300133806416
 0.00033333300358544553
 0.0004999999998671425
 0.0004999999995151365
 0.0004999999994627509
 0.0004999999989319686
 0.0004999999990383147
 0.0004999999994507266
 0.0005000000015258949
 0.0005000000027072499
 0.0005000000047078015
 0.000666667002725352
 0.0006666669997338779
 0.0006666669982468816
 0.0006666670010297165
 0.0006666670045307665
 0.0008333330033214958
 0.0008333330012460022
 0.00083333299993693
 0.0008333329987719198
 0.0008333329981012143
 0.000833332998821935
 0.0008333330003812668
 0.0008333330018275241
 0.0008333330032598787
 0.0009166670020980519
 0.00091666699999158
 0.0009166669985204297
 0.000916667000031611
 0.0009166670020264527
 0.001
 0.001
 0.001
 0.001
 0.001
 0.001
 0.001
 0.001
 0.001
 0.
 0.
 0.
 0.
 0.
 0.00016666693532670988
 0.00016666693737881817
 0.0001666669364782822
 0.0001666669348356377
 0.00016666693557068355
 0.00049999991456411
 0.0004999999126273824
 0.0004999999078628178
 0.0004999999072428622
 0.0004999999095861746
 0.0008333329674324728
 0.0008333329637391167
 0.0008333329586483628
 0.0008333329607821462
 0.0008333329638172466
 0.001
 0.001
 0.001
 0.001
 0.001
 0.
 0.
 0.
 0.
 0.
 0.
 0.
 0.
 0.
 0.00008333322924980063
 0.00008333322990510454
 0.00008333322902814356
 0.00008333322747812085
 0.00008333322739127448
 0.0001666668729078543
 0.0001666668744977502
 0.00016666687413072358
 0.00016666687302498135
 0.00016666687135820363
 0.0001666668688059533
 0.00016666686725046994
 0.00016666686626444686
 0.00016666686740698914
 0.00033333283501478647
 0.0003333328349216443
 0.00033333282935960084
 0.0003333328246692055
 0.00033333282498012044
 0.0004999998289609632
 0.0004999998280723374
 0.0004999998250390816
 0.0004999998210549391
 0.0004999998159795988
 0.0004999998142528771
 0.0004999998121965533
 0.0004999998129419028
 0.0004999998134694304
 0.0006666668770589284
 0.0006666668703781053
 0.0006666668610943959
 0.0006666668609489476
 0.0006666668640337974
 0.0008333329314519024
 0.0008333329283847063
 0.0008333329273919885
 0.0008333329209345182
 0.0008333329186536684
 0.0008333329169577836
 0.0008333329208513665
 0.0008333329216079203
 0.000833332924365425
 0.000916666966418479
 0.000916666964265832
 0.000916666958414543
 0.0009166669603294366
 0.0009166669624651356
 0.001
 0.001
 0.001
 0.001
 0.001
 0.001
 0.001
 0.001
 0.001
displacement 3
Perm: use previous
 0.
 0.
 0.
 0.
 0.
 0.
 0.
 0.
 0.
 6.549704641353012E-11
 6.716675295374306E-11
 6.780948606693204E-11
 6.928431104681655E-11
 7.08494176304948E-11
 2.3357238773283566E-10
 2.3608514643186876E-10
 2.3770600876239533E-10
 2.4006170387374773E-10
 2.43062678795041E-10
 2.465269651083925E-10
 2.5101035581466653E-10
 2.527693105442067E-10
 2.5544983897022294E-10
 7.280332712869119E-10
 7.401438944571872E-10
 7.62017605785588E-10
 7.908296943585521E-10
 8.054626352951855E-10
 1.2960121893763213E-9
 1.3090084500998475E-9
 1.3206776034687626E-9
 1.3423144487150217E-9
 1.3670162989989902E-9
 1.3908033143249728E-9
 1.417792043343858E-9
 1.4300307482873026E-9
 1.4416772018222308E-9
 1.7961916579745063E-9
 1.8347519011350906E-9
 1.908574548702423E-9
 1.975337939776956E-9
 2.006712992641305E-9
 2.1300812550922187E-9
 2.1542675440596383E-9
 2.1795380261783398E-9
 2.2315552367872313E-9
 2.279305670452885E-9
 2.3171562867421038E-9
 2.3515909567577885E-9
 2.36554170335001E-9
 2.3810701825955144E-9
 2.2194715679010856E-9
 2.2709202974268263E-9
 2.380707269511878E-9
 2.4528545103252936E-9
 2.481542374878322E-9
 2.249428858696179E-9
 2.2767586062025765E-9
 2.3011036789396753E-9
 2.3646463828834963E-9
 2.416519631113745E-9
 2.45576923228038E-9
 2.486504963857116E-9
 2.5002776545266864E-9
 2.514186815667865E-9
 0.
 0.
 0.
 0.
 0.
 2.333452994699127E-10
 2.3745699031194036E-10
 2.4275709838566977E-10
 2.5051293905172243E-10
 2.54988464858374E-10
 1.296089088828333E-9
 1.3207768528884844E-9
 1.3671313890817303E-9
 1.4175755617924051E-9
 1.441507032090123E-9
 2.1299470848395723E-9
 2.1791898434828335E-9
 2.2790271161385804E-9
 2.3509505798341215E-9
 2.380670711531428E-9
 2.2494164839620176E-9
 2.301380213134253E-9
 2.416115989445529E-9
 2.4856962248425245E-9
 2.5136961307596716E-9
 0.
 0.
 0.
 0.
 0.
 0.
 0.
 0.
 0.
 6.563734713201489E-11
 6.733903080252494E-11
 6.781903396426955E-11
 6.905430883825669E-11
 7.042801877410226E-11
 2.330570958706321E-10
 2.3587169678565085E-10
 2.3722431396568853E-10
 2.398752624582033E-10
 2.424110462401623E-10
 2.4632476193816497E-10
 2.499184604093936E-10
 2.525754176309201E-10
 2.5445148494785974E-10
 7.281968902613625E-10
 7.40348679694759E-10
 7.621298027752682E-10
 7.908006974882845E-10
 8.051217940600154E-10
 1.296237530299237E-9
 1.3088228191906602E-9
 1.32086144223226E-9
 1.3420388404660239E-9
 1.3673220485942976E-9
 1.3904017156447161E-9
 1.4174031495349161E-9
 1.4295674045326748E-9
 1.4413929018363095E-9
 1.7962670593474976E-9
 1.8347544520354647E-9
 1.908611667644489E-9
 1.9751604518700024E-9
 2.0063895236133297E-9
 2.1298099111630936E-9
 2.154245847023146E-9
 2.1789842542887805E-9
 2.2317888232153175E-9
 2.278762322306392E-9
 2.3166725625869448E-9
 2.3501974434351626E-9
 2.3651460724935797E-9
 2.3802809443671278E-9
 2.219687172889574E-9
 2.2715793846531923E-9
 2.3809266575069822E-9
 2.4520149345249376E-9
 2.4805819924922386E-9
 2.2490070157628755E-9
 2.2755039252813364E-9
 2.3010873835697913E-9
 2.362207306418692E-9
 2.415847178957538E-9
 2.4548274579668547E-9
 2.4843805936559257E-9
 2.499377971486741E-9
 2.512761011939159E-9
 0.
 0.
 0.
 0.
 0.
 2.3279993514277663E-10
 2.369790424810965E-10
 2.420848521292022E-10
 2.493774622281745E-10
 2.5379946465784686E-10
 1.2966367224331659E-9
 1.3213212301292708E-9
 1.367818541217541E-9
 1.4174592642383463E-9
 1.4413520075238723E-9
 2.128950289270463E-9
 2.178433339157939E-9
 2.278576262387077E-9
 2.3496712721112365E-9
 2.38015760503746E-9
 2.2473026319507415E-9
 2.3011082263229554E-9
 2.4156184020595928E-9
 2.482790456191697E-9
 2.510799071026642E-9
 0.
 0.
 0.
 0.
 0.
 0.
 0.
 0.
 0.
 6.603251285907337E-11
 6.76991773972762E-11
 6.774663307854536E-11
 6.852727302281973E-11
 7.013103517805464E-11
 2.325114982187018E-10
 2.3551827895983875E-10
 2.3684783632383183E-10
 2.3950367626754555E-10
 2.4170860301112753E-10
 2.461035169561238E-10
 2.488021339863567E-10
 2.5240818631529063E-10
 2.531518401759061E-10
 7.292554404451899E-10
 7.414670275130303E-10
 7.629018865878097E-10
 7.91399762656733E-10
 8.052266783642209E-10
 1.297154741727366E-9
 1.308252840436579E-9
 1.3217103136857846E-9
 1.3414974646179982E-9
 1.3683874986978737E-9
 1.3900418255381085E-9
 1.4175551433578275E-9
 1.429191974968252E-9
 1.4413290428095817E-9
 1.796580773832054E-9
 1.8347616610934345E-9
 1.9084772355624193E-9
 1.9750818086763056E-9
 2.006519757836279E-9
 2.1280047218787394E-9
 2.1544315561769485E-9
 2.17810001958858E-9
 2.2329325240149714E-9
 2.2783563794709208E-9
 2.316799747195924E-9
 2.3491800974644887E-9
 2.364792465211618E-9
 2.380046846741096E-9
 2.21931652570719E-9
 2.271860428135857E-9
 2.3809623238299724E-9
 2.4509884835946663E-9
 2.479458021669958E-9
 2.24525921967647E-9
 2.2745268828617126E-9
 2.300777805776921E-9
 2.359696738363251E-9
 2.4155107944347908E-9
 2.4539073978730993E-9
 2.4808093671988613E-9
 2.4988397995282498E-9
 2.508612391394795E-9
stress 1
Perm: use previous
 1.4020758567485772
 -0.7010360163872518
 0.1359725937518208
 0.2485409324911482
 -0.5261154527935045
 0.27757645218592036
 -0.13597439124589247
 -0.35118722504262234
 0.7023799383663935
 1.3327647939679794
 -1.1532299899192842
 0.04925575930496111
 -0.7527242732770337
 -3.619113273809999
 13.531152988078643
 -4.635730618810909
 0.6201292638851786
 3.330669330130752
 0.6251495763758175
 2.219995727746671
 1.2606008045301413
 2.8051880916781333
 -3.132424035532665
 2.7914436811497665
 2.010473772198453
 8.511109954417412
 1.2039727508808746
 -3.0154263002910975
 2.6697241171873096
 1.5822906205784746
 -3.4779886138799188
 5.944059205337822
 10.292347761398657
 5.093476660973199
 2.8774354687278945
 -4.910192853878841
 -4.543489654483118
 -1.1735568718815492
 -1.3992926247332624
 -9.24281021996307
 -7.233001014932573
 -2.9490228657353743
 14.037328862809325
 0.6020623472167714
 -6.967033366492343
 -24.27392063274144
 -36.40997945169783
 -25.8953258189864
 -13.058361382196159
 3.9143925472825996
 0.0355158024900898
 35.382674127612404
 11.36037614447622
 -76.70331891429267
 -19.340289612536896
 2.8204935907374615
 75.88658575309856
 -26.334399397084955
 33.64429971699546
 -24.66538657036357
 -114.22179828941515
 -34.4703614452516
 -13.939876625079524
 -5.207169050110855
 22.26416686280209
 1.1330432718315357
 0.07925517462081702
 -0.3704230919908106
 -0.0792562841086567
 0.3486445518497503
 10.55875641017182
 0.912118846754915
 1.2436510200614992
 1.4293555145973433
 -7.204576492759305
 0.7899105891449069
 -1.3198406577836304
 9.532802238246992
 2.8746553673347996
 -0.9149511107789401
 11.992257986085516
 -10.178990678204157
 -26.438503410120404
 -8.278149254932679
 -12.27810791733652
 62.49209280154627
 13.031121192823406
 -83.73916615564988
 -8.884493520624536
 4.922940720179954
 0.8640106721737573
 -0.43200412373663827
 0.022537649133350064
 0.19910025629551129
 -0.21473069363470848
 0.015631129588139697
 -0.022538407813626603
 0.002545221365976742
 -0.005090717094461132
 1.6134931854313581
 -0.150126488575537
 0.47427460370885166
 0.3013804051210544
 -5.381029924305456
 6.495436299829029
 -0.67453790421401
 0.9321674080239759
 1.981387985362812
 1.8852099445386892
 1.086746372193994
 1.3382032740351695
 -0.9747698986917217
 -11.873586649603748
 3.5152835392232564
 3.8231976272943298
 6.509380878567914
 2.1426533753946564
 -1.1863912527601121
 -3.580814234356475
 8.52588489699711
 1.262970240818513
 4.512863152602465
 9.480772688874968
 2.5099951121100066
 2.18353089245728
 0.5610358127727381
 1.583356675141624
 0.1447903360370586
 -2.4827738850973367
 -2.084225348247049
 -2.3381818449430725
 -8.400723068559467
 10.687652077995748
 -6.215866784632116
 -13.194469084441103
 -15.657547844800513
 -18.077722260059748
 -17.03565800747031
 -5.105026005606483
 1.7807424961913199
 -23.12120009935077
 24.116807031479556
 -11.710300419386654
 -38.23995734557168
 -8.746985673681428
 -18.50843143968924
 50.076387705773065
 -17.145299014434286
 -6.292777160150501
 -18.977239263150743
 -55.43558855132705
 -25.420702598360933
 -6.925173261533252
 -4.769865027283374
 -10.101135072982117
 0.6588116636990382
 -0.14706809503802057
 -0.03487189999731114
 0.14706777284643074
 -0.5193248000287827
 -2.7629511531639075
 1.9288198855901428
 2.843832856733177
 0.9096524391218528
 -6.450084909267103
 -10.013106218699008
 4.265943583765223
 11.163878441666464
 3.739669541526172
 -13.944234382155582
 2.5545987458753734
 -22.613227572903757
 -9.5047886968439
 1.8553227774064838
 -2.7460158335991367
 20.920480638675876
 -14.17118167701798
 -36.565770150338416
 -5.8407998819314075
 -12.82912002378265
 0.4536123713140542
 -0.22680579466616832
 -0.316673935238211
 0.35090828165759236
 0.1449868475506707
 -0.49589639027515875
 0.31667371684599627
 0.5167752140262009
 -1.0335586535246057
 -1.3497784210353887
 2.2810034520588474
 0.3549237490127257
 0.2233610906647051
 3.414348300108198
 -10.20458186219705
 2.961026200410362
 3.215039604459759
 0.11896812574610162
 3.1745689009476057
 1.489274381929894
 0.587465691261363
 1.201076521504006
 0.8560363446264666
 0.26700034642998416
 9.124689476051964
 5.022827058911666
 1.7465408619370495
 -7.885108303213327
 -18.56174194059757
 5.7265738490836195
 7.5089015017402785
 2.489145419740306
 13.34096003085157
 0.39853179624526547
 4.892610783301229
 9.59103587993104
 -29.821042238698556
 -8.114130449387575
 -2.8780157701800917
 5.415332822359399
 -0.4484600005281388
 -0.6522379983758696
 -6.083019416144064
 -7.483658459804991
 -32.44576457550326
 -7.67530521775479
 -1.1174233992269325
 -5.789178035822943
 7.723976924443757
 -0.7666456756084783
 14.359561750576853
 -12.472009398383188
 -21.869539169873416
 -7.278060053889168
 -1.7671243924506739
 2.5811501433144097
 -1.3532779365113392
 -10.44411949351738
 -21.807974550494936
 -28.404497822096733
 -19.292316914848456
 -14.0157343153368
 -4.2903214827843925
 9.910509536394468
 -13.930570762641395
stress 2
Perm: use previous
 1.0000008025281703E+9
 1.0000008347946094E+9
 1.0000008349534905E+9
 1.0000008525131701E+9
 1.0000008515670999E+9
 1.0000008757145339E+9
 1.0000008861588136E+9
 1.0000009177312027E+9
 1.000000913590948E+9
 1.0000007471245271E+9
 1.0000007738511876E+9
 1.0000008045979285E+9
 1.0000008384090177E+9
 1.0000008530303762E+9
 1.0000003671148582E+9
 1.0000003626062201E+9
 1.0000003712414656E+9
 1.0000003773155077E+9
 1.000000391688643E+9
 1.0000004009611753E+9
 1.0000004178013256E+9
 1.0000004203388873E+9
 1.0000004230890297E+9
 1.0000001630374109E+9
 1.0000001581916285E+9
 1.0000001671364505E+9
 1.0000001733523755E+9
 1.0000001836899351E+9
 9.9999990289731E+8
 9.999998857243605E+8
 9.999998833322378E+8
 9.999998831304097E+8
 9.999998846711314E+8
 9.999998815270306E+8
 9.999998767340186E+8
 9.999998720035781E+8
 9.999998725089693E+8
 9.999996954230137E+8
 9.999996800839896E+8
 9.999996714381942E+8
 9.999996501017373E+8
 9.999996429369376E+8
 9.999996436667852E+8
 9.999996452234784E+8
 9.999996337642434E+8
 9.999996368532699E+8
 9.999996260776477E+8
 9.99999621232442E+8
 9.999996038953316E+8
 9.999996041483436E+8
 9.999995983739773E+8
 9.999995368088611E+8
 9.999995466202986E+8
 9.999995175143058E+8
 9.999994974957705E+8
 9.99999490509264E+8
 9.999995568691659E+8
 9.999995672301879E+8
 9.999995753577877E+8
 9.999995549083064E+8
 9.999995540504235E+8
 9.99999536969719E+8
 9.999995313291662E+8
 9.999995219399539E+8
 9.999995150891348E+8
 1.0000003838303387E+9
 1.0000004081984605E+9
 1.0000004215767006E+9
 1.0000004375660137E+9
 1.0000004618948841E+9
 1.0000001829098321E+9
 1.0000001878307413E+9
 1.0000001978344803E+9
 1.000000212608519E+9
 1.0000002187677968E+9
 9.999999647790908E+8
 9.999999451368588E+8
 9.999999401665251E+8
 9.999999390931042E+8
 9.999999426744663E+8
 9.999998210195706E+8
 9.999998192761725E+8
 9.999998142311018E+8
 9.99999801392535E+8
 9.999997964108125E+8
 9.999997643908172E+8
 9.999997930222112E+8
 9.999997892982178E+8
 9.999997722083036E+8
 9.999997449229698E+8
 9.999999841602956E+8
 9.999999976718396E+8
 1.0000000004756782E+9
 1.0000000064333742E+9
 1.0000000066848068E+9
 1.000000005213093E+9
 1.0000000088248608E+9
 1.0000000177407746E+9
 1.0000000310670339E+9
 9.999999725599055E+8
 9.999999865756614E+8
 9.999999927648124E+8
 1.0000000000558368E+9
 1.0000000098671616E+9
 9.999999947681514E+8
 9.999999967093469E+8
 9.999999977086524E+8
 1.0000000004493285E+9
 1.0000000006804802E+9
 9.99999999836066E+8
 1.0000000016746604E+9
 1.0000000029832993E+9
 1.0000000105486132E+9
 1.0000000069250102E+9
 9.999999959223958E+8
 9.999999942130775E+8
 9.999999999789029E+8
 1.0000000091416289E+9
 1.00000002271945E+9
 1.0000000130866416E+9
 1.0000000006766802E+9
 1.0000000015311697E+9
 9.999999963462108E+8
 9.99999996637344E+8
 9.999999942860191E+8
 9.999999992808552E+8
 1.0000000068447001E+9
 1.0000000086602832E+9
 1.0000000005754377E+9
 9.999999993684856E+8
 9.999999976904454E+8
 9.999999983209205E+8
 9.999999935110258E+8
 9.99999997154753E+8
 1.0000000023779873E+9
 1.0000000014070541E+9
 1.0000000055209233E+9
 9.999999957417054E+8
 9.999999901806636E+8
 9.999999871123278E+8
 9.999999940554936E+8
 9.999999809177707E+8
 9.999999982832359E+8
 1.0000000130460457E+9
 9.99999996818036E+8
 9.999999843170341E+8
 9.999999781270595E+8
 9.99999986260898E+8
 9.999999966232433E+8
 1.0000000153532977E+9
 1.0000000314556372E+9
 1.000000013468846E+9
 9.999999931470026E+8
 9.9999998013637E+8
 9.9999998158899E+8
 9.999995719225423E+8
 9.999995755485717E+8
 9.999995784456981E+8
 9.999995789401183E+8
 9.999995905352103E+8
 9.9999981053927E+8
 9.999998059167554E+8
 9.999997971986488E+8
 9.999997917200582E+8
 9.999997984233879E+8
 1.0000000979990772E+9
 1.0000000640210421E+9
 1.0000000530977463E+9
 1.0000000614126363E+9
 1.0000000713079631E+9
 1.0000001773491272E+9
 1.0000001864340554E+9
 1.0000001918390951E+9
 1.0000001901898011E+9
 1.0000001883489733E+9
 1.0000001766270198E+9
 1.0000001969740251E+9
 1.000000247992174E+9
 1.0000002199846652E+9
 1.0000001997341467E+9
 9.99999149134994E+8
 9.999991317292799E+8
 9.999991338757433E+8
 9.999991232721682E+8
 9.999991293570276E+8
 9.999991153118335E+8
 9.999991258262888E+8
 9.999991144613421E+8
 9.999991448531424E+8
 9.999992113025185E+8
 9.999992200296648E+8
 9.999991982897844E+8
 9.999991670069715E+8
 9.999991693141718E+8
 9.99999619020267E+8
 9.999996077753062E+8
 9.999996011491067E+8
 9.999995955597311E+8
 9.999995849148576E+8
 9.999995781786779E+8
 9.99999565382824E+8
 9.999995745786804E+8
 9.99999587350119E+8
 9.999998772553749E+8
 9.999998651333476E+8
 9.999998452846844E+8
 9.999998433503317E+8
 9.9999984654893E+8
 1.0000001837713352E+9
 1.000000125005991E+9
 1.0000001373658372E+9
 1.0000001009863391E+9
 1.0000001288574082E+9
 1.0000001028059319E+9
 1.0000001328425918E+9
 1.0000001230669802E+9
 1.0000001602574978E+9
 1.0000003345912331E+9
 1.0000003366664232E+9
 1.0000003366948167E+9
 1.0000003507104998E+9
 1.0000003614592261E+9
 1.0000003552078583E+9
 1.0000003458019003E+9
 1.0000003644092174E+9
 1.0000003644560196E+9
 1.0000003786788793E+9
 1.0000003705915444E+9
 1.000000374758107E+9
 1.0000003742736157E+9
 1.000000390042122E+9
 1.0000004364317312E+9
 1.000000458354631E+9
 1.0000005134159966E+9
 1.000000494502259E+9
 1.0000004744529124E+9
 1.0000003884005911E+9
 1.0000003714756086E+9
 1.0000003724432695E+9
 1.000000435673732E+9
 1.000000467948041E+9
 1.0000004683234016E+9
 1.0000004230413538E+9
 1.0000004271535481E+9
 1.0000004365222206E+9
stress 3
Perm: use previous
 0.8790173885855169
 0.25605856105845504
 -0.3669002660458755
 -0.9330495228167811
 -1.4991987789678225
 -2.3885004114522292
 -3.2778020437098316
 -1.2212594587646481
 0.8352831260590659
 4.338417368442563
 2.8310016288901774
 1.4618044744205096
 -1.2569799800021175
 -6.0492748702233445
 -5.419869600968884
 -0.6936941635299095
 -9.143504676778365
 -0.684163918080687
 -9.557193723952205
 1.1586448346917448
 -14.722158659198673
 2.0687679210971957
 -13.29435270689011
 0.5213449523361587
 1.0132404106509973
 -0.9409471520941033
 -0.374015748492632
 -6.890531440148611
 -0.23972974181718423
 -1.457366750321971
 2.3058319132967853
 -4.702371771892336
 -0.675820301310228
 -9.887236635081395
 -10.783444994146327
 -10.285227408306998
 -7.644636586573182
 -0.34790855208363103
 -2.005052824358258
 0.4550082844400861
 -0.9287305458073766
 -8.219613921144571
 2.2008029597957144
 -4.50163438784338
 -15.442903919210584
 -2.537704229663529
 -10.851931173381725
 -9.112181278791919
 -23.21947023631351
 -3.9104195826522457
 -16.667469721623263
 18.01499772019309
 26.792810514905376
 2.5171755713843065
 0.07442719913809515
 -5.826813861941994
 29.7777265261645
 -0.9586638595924057
 30.601979437405973
 -36.83355582870658
 -21.40982498380726
 -9.4185281469778
 -9.921620606458232
 4.480927612384678
 8.330795005458754
 -0.43950869417607946
 0.18345013305006352
 0.7495993896816683
 1.6389010220794507
 -0.41764156293943405
 -11.526514338310543
 -10.205933646935467
 -13.960945061518425
 -23.45454524062724
 -21.79132834399764
 5.449252180843807
 4.655448467390304
 7.999009413846904
 -7.156477650035626
 -5.827470849932027
 -9.180650877275852
 -11.743574756823504
 -11.149688450242621
 -27.940475055162953
 -15.537489986917057
 -19.602281962202003
 -4.402575634952069
 -12.16527579784433
 -48.63245229229301
 -38.05083111606499
 2.365268413038322E-10
 5.08798400774419E-10
 1.0771956648130701E-10
 8.946828152837231E-10
 9.218818906183718E-10
 7.505783256944152E-10
 1.9683704986228457E-10
 3.502183658865775E-10
 8.763605476910649E-11
 5.056273053617109
 4.347012203501588
 -0.5326971744762935
 -8.197698428331854
 -7.983840591993313
 -11.205677944301168
 -6.944298352736933
 -10.536188848142574
 -6.46167558280067
 -13.34909241868573
 -4.76596700022499
 -23.336854658720288
 -5.03857654432584
 -24.580020077740357
 11.450448767034958
 12.814540971936813
 8.969686458852305
 5.116413572357375
 -2.7784865758630186
 10.479820682331134
 -7.468505400790085
 11.447987460325834
 -7.578352596469715
 13.774088444172548
 -7.540793361326009
 -2.282902302888999
 -7.963585609538663
 -2.7193925239965493
 4.247727913977884
 -0.09197837168972949
 -0.4662508827460819
 -3.9958237519178703
 -1.580020583652683
 -19.106490629743725
 1.7195213246862315
 -15.880107098591589
 13.498686466840237
 -8.541240238399798
 -4.567122196477442
 -27.06371598222068
 -8.998714244400965
 -10.290901213487544
 -1.3016512151614832
 6.470281890918731
 3.1629970423383638
 -21.297235264906682
 -23.069255347419258
 -42.857690253224305
 -25.078888035436062
 -7.62074082612522
 -51.54083072795717
 -9.815128644733438
 -19.641131434652294
 -59.274779451914895
 -17.734908348825368
 -60.138146588978806
 0.43950869485655236
 -0.18345013320144554
 -0.7495993898149794
 -1.6389010228275875
 0.41764156236840255
 -9.691275943624344
 -6.957515124206152
 -13.120570616359318
 -20.70989132574766
 -24.16864754210869
 17.401794840608996
 15.998755872766123
 19.424984564069526
 2.4184779290400096
 -1.1357094029331238
 -32.350013391042204
 -17.01655703855162
 -7.836131188158979
 -20.276710811085582
 -4.929227100896951
 -63.790498430754084
 -2.114887620930659
 -8.011457781683411
 -65.27948087248414
 -73.43765434422893
 -0.8790173873567165
 -0.25605856171402724
 0.36690026524580877
 0.9330495214924976
 1.4991987780237508
 2.388500409513216
 3.277802040677794
 1.2212594563271484
 -0.8352831265568665
 6.967694345418054
 9.771951704898918
 -2.9105296605368185
 -12.62914412301863
 -6.71834204217706
 -14.604355075547193
 -8.092408012856454
 -4.111015170142024
 -8.713589164325532
 -17.907652793970353
 -8.564636926079535
 -26.93300515787737
 -6.436583991342161
 -29.46555890949397
 25.464523844371683
 26.28299987850683
 18.372806324400592
 12.943920531883515
 3.009227355772867
 24.98218242009119
 -13.830008979374012
 16.106601844993484
 -12.820286914925925
 27.975631371924692
 -5.490728116379081
 5.87325015736998
 -7.338534135875057
 -0.8429388681521239
 7.417087024911248
 2.5794079007499913
 -3.415032116698567
 -1.3248659745396019
 3.6502628903788352
 -47.049150239078536
 7.6230764285406964
 -10.317145477042313
 30.631820406565318
 -10.03722762173019
 3.9848438261230275
 -19.08746953294866
 -8.061677465886214
 -3.684162024370902
 -21.613383046591082
 -2.1281459383296997
 1.3590030716675312
 -32.12102589475401
 -31.408803774197
 -110.84790680242797
 -38.152493704864504
 -28.395424302254405
 -58.07056351859828
 0.686615126144253
 -25.77258527168285
 -99.3526868284177
 -26.52531085594364
 -111.03147274482383
stress 4
Perm: use previous
 1.448599877106816
 -2.7152553450782
 -11.308364982593373
 -7.812964680317622
 -7.612293845960085
 -8.139353919001275
 -9.376563484835433
 -10.592017255106295
 -15.22752803861135
 10.04177418305706
 -2.837459759711512
 -3.0168877447232543
 2.835718769204734
 -5.943148881074483
 23.02616860037366
 1.196324623525049
 -0.6004686330247724
 1.2317027799470448
 6.589358696388439
 8.901201499248737
 10.821661815994952
 10.419368289726044
 -12.409771316335767
 14.170665632773188
 9.073268627276985
 9.253923100545292
 18.353020705614032
 2.2307811404617683
 6.383777369523689
 20.126536322736577
 23.33665348079512
 18.347908407497254
 17.02740088186153
 12.591062831498942
 12.207011499086297
 10.779056888552063
 8.994510806583033
 11.963873842532891
 31.17863455174393
 15.08598618201443
 1.1138057658340452
 4.407397681617699
 15.355106536153905
 20.34068885364925
 34.165578702553944
 31.56837342879726
 8.669818343828753
 -3.5687511161846253
 -11.415418736416086
 -8.594598183479468
 -8.780060820780415
 8.462675368859262
 15.711859246523227
 10.314731219456007
 -11.831736225801853
 -9.070785919628397
 -3.3791202307011448
 5.676169472760259
 1.8194848789038272
 28.451205435550392
 1.2634708449228162
 -5.154440827815141
 12.147408283513036
 15.373384442681678
 23.02748683639465
 -2.5559327455271057
 -10.431625668999187
 -7.6709447244324345
 -9.320065874096242
 -12.344565926750775
 12.296259642373423
 -5.324368979654943
 -0.4362609510700034
 2.547432920669155
 -9.303258436950923
 -0.09139373069975928
 8.56018285744756
 5.19544288888302
 3.813818264385241
 5.309814822321444
 11.12301889550368
 22.561035413287772
 4.340687384444983
 -7.266676860379805
 -7.687691622268449
 -3.36841514975848
 3.3099027961270355
 2.0411027434156073
 10.248280265057783
 16.593976894215857
 -5.935868878955245
 -6.806645258164015
 -9.353614747963652
 -7.6233661246617315
 -7.897238346486436
 -8.355687185161052
 -9.650746138643154
 -7.6131325015539435
 -10.083393334247019
 -0.9696190234760013
 -9.15041791403288
 -8.793554005271275
 -5.259879218747984
 -7.124802193394301
 1.4204649261490687
 -7.075081203384938
 -10.745897281106835
 -10.065132483762435
 -7.374599918065318
 -6.517749352879331
 -4.859503032137754
 -2.1388561236514843
 -4.736895039582388
 -2.7592126204842913
 -10.024244812883232
 -9.620807450936814
 -2.506368248954992
 0.047235826012631627
 -5.4098229098548565
 -3.6680750484235314
 -5.708858005913694
 -6.3375553407959515
 -6.732811944226981
 -5.672390481240859
 -4.732495821717637
 -3.392652693565959
 2.374260937022866
 -0.9112890217505982
 4.157368015042087
 -1.5266910890605125
 -2.953733100821269
 2.156416297422953
 7.942437915808283
 10.116626044821599
 12.174959217798955
 9.508081557308486
 0.2952405732307604
 -3.303156377762156
 -4.294702346706229
 -2.9228010601919854
 -7.320465505207495
 5.122307264038245
 7.722898476182726
 5.421773137251439
 -4.293546596620924
 -4.480120140511637
 -3.330636928114836
 5.655769037407717
 4.9394448544867835
 13.509501318132665
 4.262533650311265
 0.17268126492915997
 8.106720514993718
 7.06851220580344
 9.79757820615516
 -10.042621575088722
 -7.7299535775068655
 -6.944725563480075
 -10.632789447487573
 -7.260618675199389
 -3.115438756596498
 -15.770416964303235
 -15.114427186584324
 -14.97918680534647
 -3.0550283248384464
 -7.669398132353582
 -19.626733775623034
 -16.067184428953944
 -14.716905363786855
 -9.468923352988865
 -3.0753027901132572
 -1.0261908675841818
 -6.800019283872396
 3.6741763778134726
 7.495590964974227
 17.015755854100142
 23.068813767044823
 -3.2317787807728537
 1.8069628009215717
 2.183832906375029
 -14.296517817210624
 -11.501490069550895
 -5.098135304360628
 -5.321062205073424
 -5.6039407901031995
 -8.936644584775669
 -11.899770577062833
 -9.46431964653326
 -3.7569201663406138
 -4.409545609254466
 -16.27039045156133
 -16.22232533274015
 -12.031830946715136
 -3.3069903304017196
 -8.54601798481996
 -16.969128677075076
 -21.53127814680836
 -18.88390643649605
 -22.8570575646698
 -21.531544042238497
 -24.934348139656
 -17.02421681259251
 -1.061031876037927
 -7.049310139463801
 -28.19947629090528
 -30.03473473299166
 -23.735883812085003
 -10.513288221152157
 -11.559443309466904
 -32.40524807932051
 -34.19923083855537
 -33.36274718962408
 -25.434882549253345
 -24.03856669652224
 -25.19882472899821
 -16.378735962443265
 -23.11414549347752
 -19.201459817537238
 -19.737055921463384
 -18.382880128190667
 -6.223789937738343
 2.3216480076683763
 -14.226436003255172
 0.5028424132921054
 -13.884873068968957
 -14.192692483427827
 -14.091054890413611
 -2.880624120737879
 12.181458323918022
 3.182563212514207
 23.46892219969638
 -0.660355939150335
 5.255704889648727
 -0.5048505270446969
 -3.1806981567641603
 6.5985972689524655
 35.89492928721867
 40.66337644501302
 43.024598712128345
 23.047580930471405
 -10.172500373361006
 -0.8151243122771071
 -3.830673574763043
 2.2716404396452576
 -2.0315383171700363
stress 5
Perm: use previous
 94.85308761892026
 99.91985735415489
 102.23390895680573
 97.9020863969452
 93.75595226430804
 91.573677366821
 91.25451359446083
 93.09850570540391
 100.07917430136803
 -6.8165961659403385
 -3.4778395049250244
 -3.214063216314146
 -7.251558966873794
 -9.816702790563756
 72.8050528773043
 67.90907504981314
 77.12296029119767
 68.7226561471944
 78.57682845573218
 73.77487155894875
 81.77255191667665
 75.21218319186586
 89.55815319248399
 -33.25483428359771
 -28.04159676244898
 -27.431440389287648
 -28.833517656860344
 -28.120047759234687
 58.08929659813243
 65.36612481470789
 63.107076652471726
 64.99026623254434
 67.68519309675247
 65.74880575729155
 72.99500193131806
 66.68413808285325
 78.08896419486014
 -22.794551073390483
 -17.292449350639732
 -15.869238551946971
 -15.758436728466366
 -14.890244406085312
 25.05633633022081
 34.434724065484176
 31.470932665252597
 34.68628571926417
 37.47715705249731
 39.60859733949331
 37.9089175461528
 38.23977561093835
 29.952310444897147
 -11.894074524667994
 -13.245240005064659
 -9.926219372478899
 -11.906599892162852
 -9.46468884492322
 10.302243134745682
 19.71891786136144
 11.05712502347748
 34.48274264859482
 33.14897795901088
 30.819186406044018
 12.528450307527118
 9.846821854253916
 -0.37837013040697753
 98.05520034946822
 105.30177471654432
 94.95787203892883
 89.99892545770604
 98.00507526373954
 119.0636848521235
 121.77057426209774
 121.08445407792505
 130.65237784614015
 147.3657625078383
 65.63677998173449
 76.94768675178686
 80.5739238660076
 85.44658579140663
 96.03613114114721
 30.43370502068394
 41.52820613981928
 47.7882695560821
 45.7490268499996
 37.7647183139242
 4.580368336629222
 3.0638559248547015
 24.050500141510614
 2.271407554760444
 -2.094475564536778
 99.9620419524744
 106.90781728368967
 107.52628157625416
 104.315876015317
 96.35164048165994
 96.59221228655201
 91.65001355618897
 96.05658173987614
 97.17805345215197
 28.33802373041233
 33.06165840033615
 34.099770747981154
 34.101848374746595
 37.87137780305492
 154.12106680957777
 155.3669637109617
 160.47461592289272
 153.94941296642773
 161.6533069690209
 159.1761817266926
 172.99924891908228
 170.2020442164632
 191.4536237702825
 10.085243582568904
 22.026810442501134
 22.068834646823444
 24.14348387569082
 38.348480274892886
 74.08472743747211
 91.54630340524437
 91.55369500087546
 98.98753841239385
 92.85922496552581
 100.15677791597743
 98.100859198169
 105.09243541553069
 114.1581433672292
 -8.279158357361222
 2.5984857604600524
 7.366853627553723
 6.070717541503447
 10.822693120548438
 32.201487233225365
 39.25219570488605
 48.9893530914386
 47.49550417222958
 58.81675384127472
 48.25662051129676
 53.340515649882214
 44.32774023854296
 41.953986233092266
 -4.63127072134937
 0.5003958960726062
 4.272598346463861
 0.14085813917883352
 -3.1132594861888214
 0.8290413525858583
 2.4196279800740865
 -1.2563346796476111
 9.27275526578251
 20.357051640447683
 14.231455537181713
 -6.1259793156136855
 -1.500238435862821
 -4.398886698896801
 104.47343689988092
 110.7073985344535
 97.5785745989393
 91.59642658879172
 98.50174130737041
 115.29967774948331
 121.4429609230637
 123.71593609056342
 133.9014411393843
 146.336521642844
 68.06684123504434
 74.88999270641352
 74.50883690109357
 79.51785616283973
 92.14064000096114
 29.224795689933373
 46.14158732231098
 50.75065991050363
 48.93176378162953
 40.8618049636577
 -18.555863169377318
 -1.2722331741959354
 20.726373208323402
 -17.979753793246037
 -18.17921561604539
 109.7049503758159
 117.74188730988739
 115.53074937753809
 111.64892154579702
 98.05091120606241
 99.75849103523649
 87.9743373643549
 99.88279117998326
 98.21779378281151
 -12.824350706922079
 -10.044691880519212
 -8.263425983565245
 -7.338213165479861
 -5.989812069043932
 87.99831667053962
 89.21474932046247
 87.93079701170016
 80.94362204685837
 88.02809260132477
 83.75666247455736
 101.4777118478929
 94.49206087416658
 115.01939565550471
 -36.383402106052614
 -36.66420638491105
 -35.792099932043044
 -35.548707980141856
 -24.254547729912392
 61.33639548313641
 73.28902077547583
 57.94955325590921
 72.7259576961901
 56.77715136146848
 73.07502046092455
 61.016970396646684
 71.1011866688294
 70.22075567165625
 -16.73066990419657
 -16.912585315083867
 -17.294170808184536
 -15.53420324712021
 -9.720565278435293
 28.8027926279959
 32.27075516368645
 45.393406323923365
 32.46664202123025
 41.912441014468484
 26.935933324145072
 43.73266458434621
 34.84704275237595
 42.6433757962599
 -4.470487012002962
 3.501074461617279
 -2.0162055071159197
 -5.950155343591113
 -9.906920651603745
 -42.296180201508065
 -27.909523102215168
 -10.47661503506191
 -15.561468243754879
 16.96032018812448
 -2.5335567470967377
 -34.864060057342115
 -19.122122405534142
 -34.10809494519254
stress 6
Perm: use previous
 -1.2213093359322598
 0.5348186327231331
 -0.46544354522097686
 0.2618255236982474
 0.8745736933956363
 -0.5079690667931732
 0.21516302641582347
 0.17730045577401704
 -1.086447191544116
 -2.298877753466592
 -0.8360429545971457
 -1.0947192299133632
 0.3862639308400287
 6.92117952075157
 2.014655125848358
 -0.9372816283957348
 -1.5056730083867296
 -2.9803585717653727
 -0.2465804632048392
 1.098764368400147
 -0.18495097238800526
 0.6086920543161881
 2.356392623476547
 -1.6082351196902593
 1.1688958801508305
 -0.7656819847073747
 5.082825302950202
 11.483289249751797
 1.0369804098036128
 2.184405219580744
 -1.3724276171443452
 2.9304685510956587
 3.361463612892679
 -0.3664160181655225
 3.451450413411053
 -5.960823853384955
 2.3950897255388095
 -2.004488341898905
 -1.6211590503978675
 -4.407539942597468
 14.781940889256493
 23.62844910266509
 -7.800160826836201
 -5.285857787072763
 -5.143147133051741
 -2.0110123520312215
 -0.5206800709597644
 10.569204524145121
 11.892449192809364
 12.798151726350524
 12.290286325874458
 11.054110084190796
 17.923254204874763
 -5.447977535439607
 15.877092318622934
 24.956633815635556
 23.56419146753768
 -17.175614754161096
 23.841852523204835
 -31.459806662506114
 -7.908752979610059
 19.303094934127927
 13.64752022307818
 24.068000943963977
 12.857326711186301
 -1.1260660793050172
 -0.4863748223957988
 0.3008298230640351
 0.6115167557244277
 -0.6725134774382087
 9.051700599699965
 -1.4921259208433368
 -0.5163707205247965
 -0.7963041265053867
 -5.69739450732282
 -1.6284860698742958
 -9.940611521601339
 1.1010730869192167
 4.349051844940862
 -0.03698986559143015
 4.434573036618343
 8.384651858753312
 1.100790641288285
 0.8330215996895305
 -1.5530834296945166
 31.669301265297154
 28.43768397071433
 2.3530210376732894
 -1.212433840098092
 -10.31669976317139
 -1.190288122554512
 0.5951425838390724
 -0.49171397306920406
 0.07121218322939125
 0.4806587343737089
 -0.5518726475645358
 0.49171499989925016
 0.3661672969647474
 -0.7323410492164908
 2.898242684936367
 -0.8495794140352287
 -1.084208978892535
 -0.8756476349812735
 -0.9196838487147521
 13.334003526657366
 -1.6540021830036276
 -3.104649220993388
 -5.710686522341961
 -1.6519347558746151
 -0.6533392675179055
 -0.013056315066972846
 -0.08153614046450114
 -8.489926246730251
 0.32676245721429553
 -3.301266691385976
 -0.8959809601871893
 1.6958529706167191
 -2.9196786848866068
 -2.105621093735584
 -1.288527856073171
 -13.501631155692328
 -2.1437600194819906
 -1.4171891277851016
 1.3946899453719523
 4.532334738204213
 -1.1555037624617535
 -0.18251571551648682
 -1.3802380551599476
 -0.8363818655330406
 3.2498267078499223
 2.6767594920308446
 6.640629715671355
 9.130126712458493
 3.2574647745198906
 14.577215045138745
 -0.8622121198496341
 0.6655241467685309
 -2.5766945990648003
 1.545993471069432
 -1.911034597496217
 4.444941278114813
 14.020494054519
 19.647460515675274
 6.298338428723802
 -2.2852124690878846
 0.5634353907237776
 38.88514838693304
 6.576853869334152
 40.70542029003881
 -0.19964424251438562
 5.17147678377439
 3.658602756091493
 -13.615296450402385
 -1.6744197415698359
 -17.113178500107285
 -1.1636162397760108
 -0.5322214181756829
 0.7685527764494555
 0.4070820511281821
 -1.315321769373972
 12.464416378229563
 -0.954916789802941
 0.16338066553887598
 1.125548326461
 -7.164318370942271
 -10.007273526521912
 -16.379443115701466
 -3.9660805855683736
 5.369350473168167
 3.531965041338108
 23.185716385819575
 17.682458447290816
 -4.052689614991126
 8.28701579295092
 11.174789083179068
 58.385539970429974
 53.21527500714209
 0.8745690007566095
 -9.354998233255966
 -28.690976927567696
 -0.9774790578998532
 0.5645729011189896
 -0.588320989905886
 -0.02120174509516447
 0.30287403668481516
 -0.9101066848060165
 0.8386045858081194
 1.0781834415257932
 -1.4245412018098897
 3.072713344334447
 2.5770551639589456
 1.3614899120220254
 -1.4444891381780947
 -2.66195957658755
 15.38727474842157
 -0.7890246789677426
 2.750671731655468
 -2.7127522403739963
 2.5446512329713538
 -0.1419059837178293
 0.9609460753539848
 4.849115361296793
 -10.874843342882926
 -10.427864290703669
 -3.6591381648772616
 1.6948553842061511
 -0.4744667890786025
 -8.811640811384507
 -21.376322550852993
 -0.8668409985094047
 -24.187892610188747
 -6.697444438595903
 -6.037653233348698
 1.129670915673742
 6.727759223399456
 2.7409694591414033
 5.011964364168903
 -1.4345350733612947
 -3.844610425809921
 6.36974890524942
 -1.9537198902993165
 -4.033722653530992
 46.8343485099272
 7.530278310246125
 28.057456778786037
 -6.192706607937074
 -7.234668640570309
 -9.479028461935542
 3.432350305020874
 -9.76237589745542
 -1.574897344364714
 31.40421472962133
 16.983434209339684
 7.087857531561282
 2.95241802053886
 -24.920981639745623
 77.05931815255398
 30.90195440379924
 59.82442591049944
 28.32618505693754
 4.029873120158807
 -9.711859265158576
 -9.25604199359641
 2.8897750454928715
 -54.76516878586977
vonmises
Perm: use previous
 1.0000008013876373E+9
 1.0000008350171131E+9
 1.0000008350689702E+9
 1.0000008528554388E+9
 1.0000008525797703E+9
 1.0000008767700086E+9
 1.0000008878657144E+9
 1.0000009185174392E+9
 1.0000009128221318E+9
 1.0000007442889363E+9
 1.0000007730123017E+9
 1.0000008038423984E+9
 1.00000083941387E+9
 1.0000008578645706E+9
 1.0000003630592254E+9
 1.0000003652709394E+9
 1.0000003755031621E+9
 1.000000375992262E+9
 1.0000003961546744E+9
 1.0000003992718633E+9
 1.0000004245321147E+9
 1.0000004179019179E+9
 1.0000004313024303E+9
 1.0000001613810184E+9
 1.0000001566797726E+9
 1.0000001633513703E+9
 1.0000001729373988E+9
 1.0000001886429152E+9
 9.99999901682318E+8
 9.999998856619055E+8
 9.99999883918323E+8
 9.99999882509573E+8
 9.999998798628751E+8
 9.999998839239175E+8
 9.999998806870315E+8
 9.99999879601295E+8
 9.999998786030416E+8
 9.999996961837473E+8
 9.999996817861643E+8
 9.999996758320959E+8
 9.999996541826037E+8
 9.999996485212572E+8
 9.999996355477208E+8
 9.99999647173267E+8
 9.999996449692152E+8
 9.999996502590858E+8
 9.999996497086055E+8
 9.999996387361983E+8
 9.9999962203425E+8
 9.999996041463597E+8
 9.99999606689956E+8
 9.999995101100259E+8
 9.999995275437065E+8
 9.999995546073802E+8
 9.999995071287025E+8
 9.999994920124253E+8
 9.999995040370116E+8
 9.999995808767208E+8
 9.999995432346492E+8
 9.999995856577821E+8
 9.999996218662401E+8
 9.999995589141661E+8
 9.999995432599155E+8
 9.99999522303076E+8
 9.999994997916551E+8
 1.0000003834835857E+9
 1.0000004080671245E+9
 1.000000421387126E+9
 1.0000004367862036E+9
 1.0000004619293972E+9
 1.0000001833937328E+9
 1.000000192477671E+9
 1.0000002041931493E+9
 1.0000002236211396E+9
 1.000000233265782E+9
 9.999999616595157E+8
 9.999999434690641E+8
 9.99999931400629E+8
 9.999999412340264E+8
 9.99999946045691E+8
 9.999998196137687E+8
 9.999998302374588E+8
 9.999998330252011E+8
 9.999998195018505E+8
 9.999998103186136E+8
 9.999997429459158E+8
 9.999997887079396E+8
 9.999998372504414E+8
 9.999998009667773E+8
 9.999997614869164E+8
 9.999999837283053E+8
 9.99999997887859E+8
 1.000000000464427E+9
 1.0000000063338404E+9
 1.0000000067921861E+9
 1.0000000052052916E+9
 1.0000000088361427E+9
 1.0000000177395159E+9
 1.0000000310695937E+9
 9.999999692250236E+8
 9.999999844772203E+8
 9.999999927940254E+8
 1.0000000040039977E+9
 1.000000016549599E+9
 9.999999971233083E+8
 1.0000000005188012E+9
 1.0000000025107019E+9
 1.0000000026895081E+9
 1.0000000064124608E+9
 1.0000000016757144E+9
 1.0000000126740314E+9
 1.000000005990016E+9
 1.0000000287754717E+9
 9.999999994421443E+8
 9.999999876035274E+8
 9.999999864735447E+8
 9.999999963493704E+8
 1.0000000111240699E+9
 1.0000000192699552E+9
 1.0000000125579644E+9
 9.999999943212143E+8
 1.0000000030639292E+9
 9.999999847187933E+8
 9.999999991527582E+8
 9.999999943357192E+8
 1.0000000029821466E+9
 1.0000000074127376E+9
 1.0000000064640242E+9
 1.0000000018628138E+9
 1.0000000006437237E+9
 1.0000000008574482E+9
 1.0000000033112925E+9
 9.999999977204472E+8
 9.999999994029281E+8
 1.0000000169152794E+9
 1.0000000024864886E+9
 1.0000000188304096E+9
 1.0000000065430992E+9
 1.000000006265039E+9
 9.999999907213167E+8
 1.0000000107615471E+9
 9.999999695101933E+8
 1.0000000009032459E+9
 1.0000000305845267E+9
 1.0000000118401464E+9
 1.0000000051058775E+9
 9.999999745177163E+8
 1.0000000073729917E+9
 1.0000000035800048E+9
 1.0000000506123335E+9
 1.0000000640809972E+9
 1.0000000359997634E+9
 1.0000000262469804E+9
 9.999999913887568E+8
 1.0000000167086323E+9
 9.999995713733987E+8
 9.999995757138493E+8
 9.999995788379482E+8
 9.999995796860476E+8
 9.999995905860665E+8
 9.999998167664038E+8
 9.999998084311255E+8
 9.99999802337041E+8
 9.99999801620205E+8
 9.999998137327865E+8
 1.0000000943047403E+9
 1.0000000538887019E+9
 1.0000000378033234E+9
 1.0000000583335725E+9
 1.0000000788479481E+9
 1.000000192246837E+9
 1.0000002062489514E+9
 1.0000002005095589E+9
 1.000000199400499E+9
 1.0000001921865976E+9
 1.0000001980620373E+9
 1.0000002051170648E+9
 1.000000270280789E+9
 1.0000002555448074E+9
 1.0000002428675369E+9
 9.999991493477149E+8
 9.99999131970733E+8
 9.999991338506503E+8
 9.99999122630208E+8
 9.999991285349493E+8
 9.999991143655465E+8
 9.999991240290627E+8
 9.999991135923399E+8
 9.999991457875777E+8
 9.999992084935608E+8
 9.999992140031878E+8
 9.999991995675877E+8
 9.999991732098633E+8
 9.999991709661688E+8
 9.999996314247476E+8
 9.999996103410095E+8
 9.999996015971068E+8
 9.99999599857052E+8
 9.999995922814121E+8
 9.999995817163705E+8
 9.999995785556104E+8
 9.99999577196448E+8
 9.999996016549006E+8
 9.999998643896153E+8
 9.999998474295063E+8
 9.99999833586871E+8
 9.999998360051037E+8
 9.999998489868717E+8
 1.0000001805611223E+9
 1.0000001290577184E+9
 1.0000001255580932E+9
 1.0000001061519196E+9
 1.0000001081991184E+9
 1.0000001053520389E+9
 1.0000001274596679E+9
 1.0000001219407375E+9
 1.0000001755894967E+9
 1.0000003349397559E+9
 1.0000003368157281E+9
 1.0000003356946675E+9
 1.0000003515971631E+9
 1.0000003599602138E+9
 1.0000003817739486E+9
 1.0000003457321931E+9
 1.0000003857906771E+9
 1.0000003529777644E+9
 1.0000003842562077E+9
 1.0000003714937128E+9
 1.0000003804398566E+9
 1.0000003786877793E+9
 1.0000003847044257E+9
 1.0000004534744289E+9
 1.0000004703534741E+9
 1.0000005163755251E+9
 1.0000005114463346E+9
 1.0000004888667408E+9
 1.0000004445012015E+9
 1.0000003957739204E+9
 1.0000003975449773E+9
 1.0000004789112655E+9
 1.0000004772508925E+9
 1.0000004882175615E+9
 1.0000004748628633E+9
 1.0000004354609499E+9
 1.0000004990032521E+9
principal stress 1
Perm: use previous
 1.0000008025281792E+9
 1.0000008347946198E+9
 1.000000834953501E+9
 1.0000008525131798E+9
 1.0000008515671089E+9
 1.0000008757145423E+9
 1.0000008861588218E+9
 1.0000009177312115E+9
 1.0000009135909578E+9
 1.0000007471245273E+9
 1.0000007738511871E+9
 1.0000008045979279E+9
 1.0000008384090176E+9
 1.0000008530303761E+9
 1.0000003671148641E+9
 1.0000003626062253E+9
 1.0000003712414719E+9
 1.000000377315512E+9
 1.0000003916886493E+9
 1.0000004009611813E+9
 1.0000004178013321E+9
 1.000000420338893E+9
 1.0000004230890373E+9
 1.0000001630374118E+9
 1.0000001581916289E+9
 1.0000001671364512E+9
 1.0000001733523766E+9
 1.0000001836899356E+9
 9.999999028973131E+8
 9.99999885724366E+8
 9.999998833322418E+8
 9.999998831304141E+8
 9.999998846711361E+8
 9.99999881527035E+8
 9.999998767340245E+8
 9.999998720035824E+8
 9.999998725089751E+8
 9.999996954230148E+8
 9.999996800839903E+8
 9.999996714381942E+8
 9.999996501017377E+8
 9.999996429369377E+8
 9.999996436667862E+8
 9.999996452234803E+8
 9.999996337642454E+8
 9.999996368532717E+8
 9.999996260776497E+8
 9.999996212324439E+8
 9.999996038953329E+8
 9.999996041483451E+8
 9.999995983739786E+8
 9.999995368088615E+8
 9.999995466202992E+8
 9.999995175143054E+8
 9.999994974957705E+8
 9.999994905092634E+8
 9.99999556869166E+8
 9.999995672301883E+8
 9.999995753577877E+8
 9.999995549083086E+8
 9.999995540504249E+8
 9.999995369697207E+8
 9.999995313291663E+8
 9.999995219399539E+8
 9.99999515089135E+8
 1.0000003838303478E+9
 1.000000408198472E+9
 1.0000004215767102E+9
 1.0000004375660219E+9
 1.0000004618948935E+9
 1.0000001829098464E+9
 1.0000001878307562E+9
 1.0000001978344955E+9
 1.0000002126085361E+9
 1.0000002187678188E+9
 9.99999964779095E+8
 9.999999451368655E+8
 9.999999401665314E+8
 9.999999390931109E+8
 9.999999426744759E+8
 9.999998210195717E+8
 9.999998192761744E+8
 9.99999814231104E+8
 9.999998013925374E+8
 9.999997964108137E+8
 9.999997643908168E+8
 9.999997930222108E+8
 9.999997892982181E+8
 9.999997722083033E+8
 9.9999974492297E+8
 9.999999841603054E+8
 9.999999976718504E+8
 1.0000000004756895E+9
 1.0000000064333845E+9
 1.0000000066848159E+9
 1.0000000052131027E+9
 1.0000000088248694E+9
 1.0000000177407842E+9
 1.0000000310670428E+9
 9.999999725599065E+8
 9.999999865756627E+8
 9.999999927648134E+8
 1.0000000000558385E+9
 1.0000000098671627E+9
 9.999999947681742E+8
 9.999999967093713E+8
 9.999999977086784E+8
 1.0000000004493525E+9
 1.000000000680506E+9
 9.999999998360919E+8
 1.000000001674691E+9
 1.0000000029833274E+9
 1.00000001054865E+9
 1.000000006925011E+9
 9.999999959223964E+8
 9.999999942130786E+8
 9.999999999789026E+8
 1.0000000091416302E+9
 1.0000000227194555E+9
 1.0000000130866503E+9
 1.0000000006766884E+9
 1.0000000015311794E+9
 9.999999963462199E+8
 9.999999966373538E+8
 9.999999942860286E+8
 9.999999992808665E+8
 1.0000000068447127E+9
 1.0000000086602834E+9
 1.0000000005754374E+9
 9.999999993684858E+8
 9.999999976904457E+8
 9.99999998320921E+8
 9.999999935110267E+8
 9.999999971547552E+8
 1.0000000023779896E+9
 1.0000000014070568E+9
 1.0000000055209275E+9
 9.999999957417083E+8
 9.999999901806666E+8
 9.999999871123301E+8
 9.999999940554956E+8
 9.999999809177706E+8
 9.999999982832361E+8
 1.0000000130460454E+9
 9.999999968180364E+8
 9.999999843170344E+8
 9.999999781270591E+8
 9.999999862608976E+8
 9.999999966232436E+8
 1.0000000153532977E+9
 1.0000000314556377E+9
 1.0000000134688461E+9
 9.999999931470026E+8
 9.999999801363696E+8
 9.999999815889901E+8
 9.999995719225532E+8
 9.999995755485836E+8
 9.999995784457079E+8
 9.999995789401267E+8
 9.999995905352196E+8
 9.99999810539283E+8
 9.9999980591677E+8
 9.99999797198664E+8
 9.999997917200762E+8
 9.999997984234102E+8
 1.0000000979990816E+9
 1.0000000640210477E+9
 1.0000000530977521E+9
 1.000000061412643E+9
 1.0000000713079724E+9
 1.0000001773491275E+9
 1.0000001864340577E+9
 1.0000001918390971E+9
 1.0000001901898036E+9
 1.000000188348975E+9
 1.00000017662702E+9
 1.0000001969740254E+9
 1.0000002479921738E+9
 1.0000002199846655E+9
 1.000000199734147E+9
 9.999991491350062E+8
 9.999991317292938E+8
 9.999991338757566E+8
 9.9999912327218E+8
 9.999991293570379E+8
 9.999991153118439E+8
 9.999991258262974E+8
 9.999991144613518E+8
 9.999991448531524E+8
 9.999992113025188E+8
 9.999992200296654E+8
 9.999991982897844E+8
 9.999991670069714E+8
 9.99999169314172E+8
 9.99999619020274E+8
 9.999996077753143E+8
 9.99999601149115E+8
 9.999995955597379E+8
 9.999995849148664E+8
 9.999995781786859E+8
 9.999995653828349E+8
 9.999995745786895E+8
 9.99999587350132E+8
 9.999998772553766E+8
 9.999998651333506E+8
 9.999998452846864E+8
 9.999998433503332E+8
 9.999998465489303E+8
 1.00000018377134E+9
 1.0000001250059978E+9
 1.0000001373658417E+9
 1.0000001009863449E+9
 1.0000001288574113E+9
 1.0000001028059375E+9
 1.0000001328425965E+9
 1.000000123066985E+9
 1.0000001602575029E+9
 1.0000003345912336E+9
 1.000000336666424E+9
 1.0000003366948174E+9
 1.0000003507105E+9
 1.0000003614592259E+9
 1.0000003552078587E+9
 1.0000003458019013E+9
 1.0000003644092196E+9
 1.0000003644560207E+9
 1.000000378678881E+9
 1.0000003705915445E+9
 1.0000003747581092E+9
 1.0000003742736171E+9
 1.0000003900421245E+9
 1.0000004364317307E+9
 1.0000004583546311E+9
 1.0000005134159967E+9
 1.0000004945022589E+9
 1.0000004744529128E+9
 1.0000003884005944E+9
 1.0000003714756107E+9
 1.0000003724432718E+9
 1.0000004356737325E+9
 1.0000004679480416E+9
 1.0000004683234012E+9
 1.0000004230413554E+9
 1.000000427153548E+9
 1.000000436522222E+9
principal stress 2
Perm: use previous
 2.389540410644419
 0.49516496532166565
 0.41354835172011295
 0.3039588273737984
 -0.01185814663117446
 0.3710801015533347
 -0.12130777299149598
 -0.31644486045895015
 1.857302109855964
 5.5821025413678305
 2.999324012609
 2.0583093151979277
 -0.5435840078511979
 2.1928356177436417
 13.742959770937876
 -0.4821930437244577
 0.8470485999828341
 4.916614881530091
 0.6311173663648049
 2.9095228185380035
 1.262740655559389
 3.1483721807592397
 -2.6126041224233596
 3.6248338518817285
 2.782658419312569
 8.57273359584069
 5.558676072853288
 6.692622689973753
 3.001490061760946
 2.7235694259907657
 2.6149655647131564
 6.697376861219007
 11.240572781562868
 5.1024334218343
 3.6999300356973794
 -1.0590435625400065
 -3.2408682090924197
 1.2858240774273386
 -0.05296413427327762
 2.1588331122860422
 11.033423106191957
 18.19063458270125
 17.9103040828705
 3.9198155563806747
 -4.5407317188928165
 -2.3532143471823344
 -10.84132943408248
 -4.008326986525761
 -5.20669335142442
 13.384796429473663
 6.543315390699654
 40.75594780040933
 38.59025646242406
 2.8900764893274533
 8.976605569406386
 23.82523384419195
 85.79846979140456
 7.707243698688847
 56.01346931008432
 1.2932428493531347
 -20.740724075853066
 1.0665967806492518
 1.863866072484564
 24.187509732229543
 29.920939934225192
 1.7201749168597864
 0.6205024238507868
 0.8252774003585942
 1.83431484600002
 0.7394959531153611
 13.794531436361304
 1.1088903207420007
 1.2611675378873244
 1.4548118198019466
 -5.243030651370365
 5.961994197188249
 12.047674368780452
 10.107728220581485
 4.497623675474024
 -0.9146726245195547
 12.883540654767188
 -2.540217824265053
 -11.070840774374226
 -8.242920291919656
 -11.656586169597947
 73.28905886108231
 34.057932796606934
 -12.088003272111264
 -8.847545001794451
 7.271334222948518
 1.6982614779240155
 0.41711935477633133
 0.5031052083251689
 0.2219480644550484
 0.3851336640606515
 0.5597381102083854
 0.48057145654808026
 0.36743822412453997
 0.7297943453576449
 6.7057865637164715
 4.502157414637482
 1.1661989224102243
 0.3906591890326059
 -5.088862805421142
 13.648873540092563
 -0.2649600056376169
 1.7186957764045463
 4.861488693935547
 2.062279131690854
 1.1587912969565934
 1.338210158009324
 -0.9731346479520937
 -7.62293431910771
 11.463881690806854
 13.896451131997043
 9.26139306439843
 5.884910990902926
 1.0438149133048258
 10.788367113766625
 8.629025070678377
 20.785569279389502
 4.88169794984317
 14.199690776101964
 2.699938508560339
 5.002966218433875
 0.7148862083393048
 1.5910848123617058
 4.6688247950709085
 0.17156541148880375
 2.0737667635260024
 -0.36486333247120406
 2.474777681451106
 13.262899927964696
 2.8854084899408234
 0.10164319015215284
 13.524159434551382
 -8.495022655194184
 -4.0556195513889906
 -4.99671514705026
 2.1095125216108883
 -8.90146079107659
 30.33107538108409
 19.028457109589073
 4.099916828777778
 -8.34383321657212
 -18.439856798851046
 64.20011099816577
 -13.43156858059039
 33.75407626919838
 -18.976015490346732
 -9.236242697905638
 -17.868703674698338
 -3.5957967198991767
 -4.557107189217348
 -4.808149600669118
 1.717925369938613
 0.36726628768800174
 0.455336494992701
 0.23547869311091363
 1.3454133095151009
 6.709732267045247
 2.030275155213233
 2.8455045374464287
 0.9680922673608947
 -3.9157600227424503
 20.666072880992367
 27.530645464898658
 21.020791531225466
 8.488906685254577
 -0.22633772704418828
 14.122292989949024
 -1.9123792028733513
 -4.532781628223613
 4.61433215606332
 7.390356526340678
 50.69583585294046
 45.41258151082306
 -7.984696758207173
 -4.403195848166767
 -1.401855182160773
 0.9702730474279455
 0.32332468779808465
 0.7054995727869203
 0.9338081811663584
 1.5638420023449953
 2.6516457975522627
 3.498797453213321
 2.0032753233452354
 0.49356024780653124
 7.979707782537152
 10.572881417061755
 0.8480968294332283
 0.3837062140542802
 4.071103878238395
 3.13926478893805
 3.0170643173826974
 4.1328379193679625
 0.8855964886457919
 3.477362540321934
 1.491276400015746
 0.6209782594005944
 3.5545534518672834
 4.352997249343574
 29.220245216969424
 27.030750861737243
 18.584615669553482
 12.963987963063243
 7.921434306981039
 33.721943798237184
 5.7649199141206715
 36.37468156707632
 5.005485048346664
 30.144948686959246
 0.6077885349812631
 12.12853254415742
 10.02375042737641
 -0.0005759317504436733
 7.548475592058311
 4.565237109878056
 8.750474727711975
 1.1155965277488402
 6.070532550893116
 24.551545860537757
 10.73546877641766
 8.77877992650819
 31.60804984916908
 2.9215649461000197
 9.762486837917296
 8.1564051383153
 6.007371386870759
 14.495990448577345
 14.692392871529172
 7.644672578562315
 5.340317225388774
 -1.482619683143323
 15.750465979724723
 38.4266890539742
 9.56715159430204
 34.81332779942635
 -11.262671641201692
 1.4688390419671722
 -8.541798904937671
 -3.3974642694593626
 10.138277748707612
 10.706203882893504
principal stress 3
Perm: use previous
 -0.10845616454032328
 -0.9401524119888454
 -0.6444866036577227
 -0.9884770635548522
 -2.013464933257318
 -2.4820125127939408
 -3.2924770772636767
 -1.2560106028623632
 -0.31964929319525326
 0.08907952470738767
 -1.3215523856070024
 -0.5472491275890463
 -1.4661203066852593
 -11.861223818857681
 -5.631682214534755
 -4.847236351731897
 -9.370429961046343
 -2.270114193910863
 -9.5631677316792
 0.4691122219302987
 -14.724305314083246
 1.7255780665870843
 -13.814180794511113
 -0.31204652372487707
 0.24105489490369467
 -1.0025716317276256
 -4.728720245147978
 -16.598581222629555
 -0.571499101491098
 -2.5986502337730983
 -3.7871267922832774
 -5.4556939883956215
 -1.6240501928838071
 -9.896197877373298
 -11.605945037798069
 -14.136381263011558
 -8.947264210830394
 -2.8072901656579354
 -3.351382585430676
 -10.94663552043658
 -19.19515495094142
 -29.359271550108886
 -1.6721731379916551
 -7.819389190950613
 -17.869207723711014
 -24.458412715262135
 -36.42058267076348
 -30.999181677758784
 -31.07113983742972
 -13.380825002873355
 -23.175270241520217
 12.641723780243654
 -0.43707021301948856
 -77.07622009302956
 -28.24246814753552
 -26.8315543800259
 19.86584221887805
 -35.00030741247283
 8.232809664245533
 -62.792187178718336
 -114.89090029619408
 -44.955487310162276
 -25.725363678639667
 -24.913751672420247
 0.6740214668999169
 -1.0266499605397752
 -0.35780831346441855
 -0.4461101785058169
 -0.274678294719519
 -0.8085027215987977
 -14.7623036914026
 -10.402719977366072
 -13.978476240979942
 -23.48001862236051
 -23.752895988508875
 0.27716426452980514
 -8.712072555057055
 7.424076912351533
 -8.779453272580051
 -5.827758587324465
 -10.071934593553337
 -19.382349857522968
 -26.51735338850588
 -27.97570616382028
 -16.15901321959309
 -30.399247927411743
 -25.429387348692035
 -83.81643926045102
 -48.669400878534496
 -40.399224946736446
 -0.834260833159958
 -0.8491349536217241
 -0.4805792084723591
 -0.02285874718239501
 -0.5998737027751149
 -0.5441163797432543
 -0.50311835701946
 -0.36490228723344037
 -0.7348946076188955
 -0.03602113126005069
 -0.30527287653862256
 -1.2246227329308392
 -8.286978402986211
 -8.276009195931826
 -18.359138942469745
 -7.353900440251632
 -11.322743084059487
 -9.34180009269284
 -13.526187792041563
 -4.838037304523177
 -23.3368914922174
 -5.040240768375818
 -28.830709084669994
 3.501850506443417
 2.741286879590728
 6.2176736931678445
 1.3741553677626346
 -5.008694213607315
 -3.8893661836495443
 -7.571653968705026
 -8.074619988944573
 -7.947197232411693
 9.055161688797732
 -7.730746821336742
 -5.10234727521574
 -8.117447061025947
 -2.7271336989346824
 -0.27630661118924316
 -2.746317694299814
 -4.624243104511937
 -5.969142297856375
 -12.455521417145803
 -21.681739609527114
 -7.381755591347444
 -29.176221960199204
 -15.683023158722511
 -18.123943302771806
 -17.547162991297945
 -27.1720297044096
 -9.327486243356564
 -24.510642336901377
 -7.515919661010103
 -24.268475757939992
 -39.17687718091403
 -21.70038773457245
 -23.1378300153113
 -56.98141358471562
 -28.792618636945534
 -47.667594391147446
 -51.54205476909619
 -56.01447493847657
 -27.193130585627227
 -62.60415597692796
 -17.947666261216742
 -65.43113219914493
 -0.619616026984943
 -0.6977968318150812
 -1.2398173546064346
 -1.7273204460599476
 -1.4471063025120208
 -19.163972665326213
 -7.0589853909294
 -13.12225783115485
 -20.76834930799571
 -26.702993851858512
 -13.27738895796525
 -7.2659520211956306
 9.568065665406738
 -2.330765754158718
 -14.853614637961064
 -43.917708652295985
 -37.717407485410035
 -12.808140877840598
 -23.03572259113091
 -15.065601156382327
 -93.56585428439493
 -61.69865147209393
 -36.592531614492906
 -66.7170851960106
 -84.86491945942923
 -1.395690303060739
 -0.8062030396237171
 -0.6552866161447708
 0.35013712817739595
 0.08033397783734442
 -0.7590518099185002
 0.09567042322264285
 -0.2652507191419855
 -2.362411688725405
 -2.361792037570278
 1.4800733801392632
 -3.4037030693451125
 -12.789489455781293
 -7.375097663239606
 -27.9482095542728
 -8.148454377060323
 -5.028821680333674
 -9.480224435319213
 -18.210454704620567
 -8.56664642295383
 -26.966528645463967
 -8.790070140111947
 -32.96253304585282
 -3.488722382165527
 8.376936347884978
 4.811015530805543
 1.7264716036399435
 -12.797315944414402
 -27.30150724786366
 -13.868361465736921
 -12.759182787757602
 -15.336632943168034
 11.17163884471151
 -5.699990772837857
 -1.3626759618507691
 -7.771254007383369
 -30.66341064137499
 -8.245519666537096
 -4.863845660021487
 -6.750174682133792
 -2.888922785671151
 -3.0725077671467
 -77.6837165520221
 -10.596051854524491
 -51.54169228627448
 -8.651535915664919
 -14.07621792028062
 -11.56682176420154
 -19.519899808730692
 -14.835695751306197
 -3.820593091877306
 -48.77778534460711
 -31.642357849399517
 -11.25937427773464
 -32.40553067841361
 -44.578119779448514
 -150.62787679622807
 -58.16376729484869
 -85.01672864976823
 -75.21239057383134
 -20.07454121237761
 -31.24652061591418
 -100.2455452797169
 -26.753079432490015
 -135.6682484397441
tresca
Perm: use previous
 5.0000040131831765E+8
 5.000004178673861E+8
 5.0000041779899377E+8
 5.0000042675082844E+8
 5.000004267902869E+8
 5.000004390982774E+8
 5.000004447256495E+8
 5.000004594936111E+8
 5.0000045695530355E+8
 5.000003735177239E+8
 5.0000038758636975E+8
 5.000004025725885E+8
 5.0000041993756896E+8
 5.0000043244579995E+8
 5.0000018637327313E+8
 5.000001837267308E+8
 5.0000019030595094E+8
 5.0000018979281306E+8
 5.000002006259085E+8
 5.000002002460345E+8
 5.000002162628187E+8
 5.000002093066575E+8
 5.000002184516091E+8
 5.0000008167472917E+8
 5.00000078975287E+8
 5.000000840695114E+8
 5.000000890405484E+8
 5.000001001442584E+8
 4.999999517344061E+8
 4.999999441615081E+8
 4.999999435596843E+8
 4.9999994429305404E+8
 4.9999994314759314E+8
 4.9999994571161646E+8
 4.9999994416998476E+8
 4.999999430699818E+8
 4.999999407281197E+8
 4.999998491151525E+8
 4.999998417176865E+8
 4.999998411924148E+8
 4.999998346484463E+8
 4.999998361481046E+8
 4.9999982266947967E+8
 4.999998265214348E+8
 4.9999982581672657E+8
 4.9999983065584224E+8
 4.999998312491162E+8
 4.999998261158128E+8
 4.999998174832364E+8
 4.999998087645851E+8
 4.999998107746244E+8
 4.999997620835689E+8
 4.9999977352868474E+8
 4.999997972952627E+8
 4.999997628691193E+8
 4.999997586704089E+8
 4.999997685016619E+8
 4.9999980111524785E+8
 4.9999978356248903E+8
 4.999998088502479E+8
 4.999998344706626E+8
 4.99999790962604E+8
 4.99999778527265E+8
 4.999997734268528E+8
 4.999997572075568E+8
 5.0000019242849886E+8
 5.000002042781402E+8
 5.000002110114102E+8
 5.0000021892035013E+8
 5.000002313516981E+8
 5.0000009883607507E+8
 5.000000991167381E+8
 5.000001059064859E+8
 5.0000011804427737E+8
 5.000001212603574E+8
 4.999999822509654E+8
 4.9999997692446905E+8
 4.9999996637122726E+8
 4.999999739362821E+8
 4.999999742511172E+8
 4.999999155457531E+8
 4.9999991932926214E+8
 4.999999203742287E+8
 4.999999146841218E+8
 4.999999062849135E+8
 4.9999989739503235E+8
 4.999999092257991E+8
 4.999999365573287E+8
 4.9999991043885213E+8
 4.999998926610975E+8
 4.999999924972831E+8
 4.999999992604927E+8
 5.000000004781344E+8
 5.0000000322812164E+8
 5.000000036423448E+8
 5.0000000287860954E+8
 5.000000046639939E+8
 5.000000090528432E+8
 5.0000001590096873E+8
 4.999999862979638E+8
 4.999999934404678E+8
 4.999999969947181E+8
 5.000000041714084E+8
 5.0000000907158595E+8
 5.0000000656365657E+8
 5.000000020316359E+8
 5.000000045157107E+8
 5.000000048955763E+8
 5.000000071033469E+8
 5.0000000233706456E+8
 5.0000001250579125E+8
 5.000000040117841E+8
 5.0000001968967956E+8
 5.000000017115803E+8
 4.999999965905548E+8
 4.999999939977025E+8
 4.999999993023736E+8
 5.000000070751622E+8
 5.000000133044108E+8
 5.000000103291521E+8
 5.000000043756542E+8
 5.000000047391883E+8
 4.999999936455291E+8
 5.000000021840503E+8
 4.9999999969418794E+8
 5.0000000369915676E+8
 5.0000000478592324E+8
 5.0000000446829504E+8
 5.000000016608776E+8
 5.000000019963645E+8
 5.00000001829794E+8
 5.000000053882212E+8
 5.0000000759638315E+8
 5.000000022682554E+8
 5.000000157771058E+8
 5.0000000854504E+8
 5.0000001182243544E+8
 5.0000000664443564E+8
 5.0000000867634815E+8
 4.999999982199082E+8
 5.0000000928306895E+8
 4.9999999421684515E+8
 5.0000001127585596E+8
 5.000000261114613E+8
 5.000000092592121E+8
 5.000000037274322E+8
 5.0000001755423635E+8
 5.0000000752675813E+8
 5.00000022145419E+8
 5.0000003344767624E+8
 5.0000004373505634E+8
 5.0000002033098835E+8
 5.000000278755793E+8
 4.9999999904201794E+8
 5.0000002351006114E+8
 4.999997862710846E+8
 4.999997881231902E+8
 4.9999978984276265E+8
 4.9999979033372355E+8
 4.9999979599116296E+8
 4.999999148516278E+8
 4.9999990648787767E+8
 4.999999051604609E+8
 4.9999990624421275E+8
 4.99999912563202E+8
 5.000000556382353E+8
 5.0000003564349985E+8
 5.000000217648432E+8
 5.0000003187170434E+8
 5.0000004308079356E+8
 5.000001106334181E+8
 5.000001120757326E+8
 5.00000102323619E+8
 5.000001066127631E+8
 5.00000101707288E+8
 5.0000013509643716E+8
 5.000001293363384E+8
 5.000001422923527E+8
 5.000001433508754E+8
 5.000001422995332E+8
 4.9999957526534826E+8
 4.999995662677484E+8
 4.9999956726552165E+8
 4.999995614610214E+8
 4.99999564638352E+8
 4.9999955803544784E+8
 4.999995628653135E+8
 4.999995573633012E+8
 4.9999957360778207E+8
 4.9999960683215547E+8
 4.99999609274796E+8
 4.9999960084674376E+8
 4.9999958989823043E+8
 4.9999958834463483E+8
 4.999998234842418E+8
 4.999998079618844E+8
 4.9999980308896834E+8
 4.999998025199812E+8
 4.999998015626606E+8
 4.999997933726662E+8
 4.999997961746818E+8
 4.999997916843798E+8
 4.999998101563325E+8
 4.9999994037204945E+8
 4.9999992837820715E+8
 4.999999202368355E+8
 4.999999208119308E+8
 4.999999296731231E+8
 5.000001055364236E+8
 5.000000694371796E+8
 5.000000750625123E+8
 5.0000005816148895E+8
 5.000000588428862E+8
 5.0000005425296414E+8
 5.000000671026362E+8
 5.0000006541911954E+8
 5.000000954604568E+8
 5.000001714183766E+8
 5.000001707651349E+8
 5.0000017172249603E+8
 5.000001767997114E+8
 5.000001822658668E+8
 5.000002164457876E+8
 5.000001781989766E+8
 5.0000020797545594E+8
 5.000001865537783E+8
 5.0000019637754947E+8
 5.0000019107918316E+8
 5.000001971390045E+8
 5.0000019455465645E+8
 5.000001969313588E+8
 5.00000242604758E+8
 5.0000024499849445E+8
 5.0000026233768547E+8
 5.000002634538948E+8
 5.000002595155163E+8
 5.0000026951423556E+8
 5.0000021481968904E+8
 5.000002287300002E+8
 5.0000025544306153E+8
 5.000002440112914E+8
 5.000002497849609E+8
 5.000002616434503E+8
 5.000002269533137E+8
 5.000002860952352E+8
principal angle 1
Perm: use previous
 1.570796325346298
 1.5707963240796436
 1.570796315486541
 1.5707963189819387
 1.5707963191826093
 1.5707963186555498
 1.5707963174183415
 1.570796316202889
 1.5707963115673824
 1.57079631675313
 1.570796323957439
 1.570796323778011
 1.57079632395918
 1.5707963208517528
 1.570796303768736
 1.5707963255985724
 1.570796326194428
 1.5707963255631945
 1.5707963202055406
 1.5707963178936986
 1.5707963159732392
 1.5707963163755325
 1.570796314385131
 1.5707963126242332
 1.5707963177216293
 1.570796317540975
 1.5707963084418792
 1.570796324564116
 1.5707963204111186
 1.5707963066683577
 1.5707963034582406
 1.5707963084469858
 1.5707963097674933
 1.5707963142038324
 1.5707963145878834
 1.5707963160158387
 1.5707963178003845
 1.5707963148310191
 1.570796295616252
 1.5707963117089057
 1.5707963256810908
 1.5707963223874974
 1.5707963114397847
 1.5707963064542008
 1.5707962926293058
 1.5707962952265127
 1.5707963181250753
 1.5707963232261446
 1.5707963153794737
 1.5707963182002955
 1.5707963180148328
 1.5707963183322173
 1.5707963110830305
 1.5707963164801617
 1.5707963149631547
 1.5707963177241078
 1.5707963234157747
 1.570796321118725
 1.570796324975411
 1.5707962983436805
 1.5707963255314257
 1.5707963216404546
 1.5707963146474828
 1.5707963114215053
 1.5707963037673882
 1.5707963242389646
 1.570796316363275
 1.5707963191239551
 1.570796317474835
 1.5707963144503363
 1.5707963144986379
 1.5707963214705285
 1.5707963263586355
 1.5707963242474643
 1.5707963174916393
 1.5707963267035026
 1.5707963182347142
 1.5707963215994531
 1.5707963229810777
 1.5707963214850815
 1.5707963156718754
 1.570796304233857
 1.5707963224542083
 1.5707963195282184
 1.5707963191072034
 1.570796323426478
 1.5707963234849964
 1.5707963247537935
 1.570796316546614
 1.5707963102009155
 1.5707963208590274
 1.5707963199882513
 1.5707963174412818
 1.5707963191715306
 1.5707963188976584
 1.5707963184392093
 1.5707963171441506
 1.5707963191817642
 1.5707963167115035
 1.5707963258252775
 1.5707963176444786
 1.5707963180013425
 1.5707963215350174
 1.5707963196700945
 1.5707963253744297
 1.5707963197198151
 1.5707963160489988
 1.5707963167297634
 1.5707963194202965
 1.570796320277147
 1.5707963219353935
 1.5707963246560404
 1.570796322058
 1.570796324035684
 1.5707963167706516
 1.5707963171740889
 1.5707963242885283
 1.5707963267476608
 1.5707963213850737
 1.5707963231268214
 1.5707963210860374
 1.570796320457341
 1.5707963200620845
 1.5707963211225062
 1.570796322062401
 1.5707963234022437
 1.5707963244206355
 1.5707963258836075
 1.5707963226375283
 1.5707963252682056
 1.5707963238411635
 1.57079632463848
 1.5707963188524583
 1.5707963166782706
 1.5707963146199369
 1.5707963172868151
 1.5707963264996558
 1.5707963234917401
 1.5707963225001942
 1.5707963238720954
 1.5707963194744314
 1.5707963216725886
 1.5707963190719911
 1.5707963213731242
 1.5707963225013426
 1.5707963223147763
 1.5707963234642421
 1.5707963211391287
 1.5707963218554586
 1.5707963132853957
 1.5707963225323631
 1.5707963266222151
 1.5707963186881762
 1.5707963197263848
 1.5707963169973183
 1.5707963167522707
 1.5707963190649397
 1.5707963198501682
 1.5707963161621028
 1.570796319534275
 1.5707963236794589
 1.5707963110244765
 1.5707963116804662
 1.5707963118157067
 1.5707963237398666
 1.5707963191254986
 1.570796307168163
 1.5707963107277125
 1.5707963120779926
 1.5707963173259745
 1.5707963237195945
 1.5707963257687068
 1.5707963199948785
 1.5707963231207205
 1.5707963192993066
 1.570796309779143
 1.5707963037260755
 1.5707963235631186
 1.570796324987934
 1.5707963246110637
 1.5707963124983664
 1.5707963152933966
 1.5707963216967569
 1.5707963214738296
 1.570796321190951
 1.570796317858244
 1.5707963148951158
 1.5707963173305686
 1.5707963230379731
 1.5707963223853474
 1.5707963105244933
 1.5707963105725584
 1.5707963147630557
 1.5707963234879037
 1.5707963182488767
 1.5707963098257611
 1.57079630526361
 1.5707963079109823
 1.5707963039378297
 1.5707963052633434
 1.5707963018605378
 1.570796309770673
 1.570796325733863
 1.570796319745586
 1.5707962985954165
 1.570796296760157
 1.570796303059009
 1.570796316281607
 1.570796315235454
 1.5707962943896523
 1.5707962925956689
 1.5707962934321522
 1.5707963013600168
 1.5707963027563323
 1.5707963015960758
 1.5707963104161626
 1.5707963036807557
 1.5707963075934432
 1.5707963070578475
 1.5707963084120224
 1.5707963205711089
 1.5707963244732495
 1.5707963125684659
 1.5707963262920543
 1.5707963129100304
 1.5707963126022093
 1.570796312703847
 1.5707963239142735
 1.5707963146134425
 1.570796323612335
 1.5707963033259835
 1.5707963261345443
 1.5707963215391938
 1.570796326290046
 1.5707963236142
 1.5707963201963016
 1.5707962908999848
 1.570796286131536
 1.570796283770317
 1.5707963037473265
 1.5707963166224013
 1.5707963259797713
 1.570796322964225
 1.570796324523257
 1.5707963247633614
principal angle 2
Perm: use previous
 9.305772182939054E-8
 3.14159255035152
 3.141592551432579
 3.141592554746672
 3.1415925581758066
 3.141592562949568
 3.141592564182826
 3.141592559346575
 3.1415925570192313
 2.1073424255447017E-8
 3.1415925138045107
 3.1415924651033564
 1.4901161193847656E-8
 3.141592638688632
 7.742870483855356E-8
 7.598131170262078E-8
 3.141592571972772
 6.322027276634106E-8
 8.024520884654679E-8
 8.024520884654679E-8
 7.884953353001449E-8
 7.598131170262078E-8
 3.141592569296096
 2.5809568279517854E-8
 1.4901161193847656E-8
 2.5809568279517854E-8
 2.980232238769531E-8
 1.4901161193847656E-8
 5.372690074837192E-8
 8.024520884654679E-8
 5.771194914292422E-8
 6.495265578539184E-8
 6.828569911354543E-8
 6.664001874625056E-8
 8.024520884654679E-8
 6.322027276634106E-8
 7.45058059692383E-8
 4.2146848510894035E-8
 3.332000937312528E-8
 2.1073424255447017E-8
 2.980232238769531E-8
 0.
 3.332000937312528E-8
 4.712160915387242E-8
 4.470348358154297E-8
 3.942476676500724E-8
 5.372690074837192E-8
 3.141592606468184
 3.1415926202697837
 3.1415926141650266
 3.1415926114429444
 2.5809568279517854E-8
 2.980232238769531E-8
 5.960464477539064E-8
 3.141592638688632
 3.14159258058931
 3.141592638688632
 1.4901161193847656E-8
 0.
 5.16191365590357E-8
 4.2146848510894035E-8
 3.1415925998628924
 1.4901161193847656E-8
 2.980232238769531E-8
 7.717017755642159E-7
 3.1415925617328666
 3.1415925440890686
 3.141592552525201
 3.141592562949568
 3.1415925581758066
 1.1920928955078133E-7
 3.141592531618532
 3.1415925271492475
 1.3160349229466696E-7
 3.141592504578181
 3.1415925886371374
 8.560065398421929E-8
 7.884953353001449E-8
 7.742870483855356E-8
 9.996002811937589E-8
 3.332000937312528E-8
 3.942476676500724E-8
 4.712160915387242E-8
 3.1415926019706566
 3.1415926237874707
 3.1415925733445844
 1.20137002293744E-7
 1.4901161193847656E-8
 1.5123026915032014E-7
 2.5809568279517854E-8
 3.1415925558763447
 3.141592552525201
 3.141592548222672
 3.141592554746672
 3.141592559346575
 3.141592553629765
 3.141592560532071
 3.141592554746672
 3.1415925617328666
 3.1415926202697837
 3.1415926141650266
 3.1415926237874707
 3.1415926041682325
 3.1415926237874707
 1.4751396978812924E-7
 3.1415924965963185
 3.14159249172175
 3.141592498017103
 3.141592494488929
 3.1415924910373154
 3.141592477276876
 3.141592488327921
 3.141592461024352
 3.141592571972772
 3.141592627780225
 3.1415926088863095
 3.141592638688632
 3.332000937312528E-8
 3.141592579083987
 3.1415925581758066
 3.141592564182826
 3.141592554746672
 3.1415925558763447
 3.1415925558763447
 3.1415925570192313
 3.1415925461359917
 1.1050996910178166E-7
 3.1415926237874707
 9.884312124119404E-8
 3.1415926202697837
 3.1415926170895516
 4.470348358154297E-8
 2.980232238769531E-8
 5.575503985246929E-8
 4.712160915387242E-8
 5.575503985246929E-8
 7.300048299977716E-8
 3.1415925939851483
 3.1415925978347534
 3.1415926019706566
 3.141592606468184
 3.332000937312528E-8
 3.5731729293709584E-7
 6.322027276634106E-8
 3.141589399229407
 3.1415925836971517
 3.1415922087957475
 1.6118070224511593E-7
 1.705515852907242E-7
 2.5809568279517854E-8
 2.1073424255447017E-8
 0.
 1.4901161193847656E-8
 2.71920674903612E-7
 1.4901161193847656E-8
 3.14159255035152
 3.1415925461359917
 3.141592553629765
 3.141592562949568
 3.141592559346575
 3.1415925410884933
 3.1415925343805036
 3.1415925325321874
 3.1415925203097554
 3.1415925016271697
 3.1415925886371374
 3.14159258058931
 3.141592577608481
 3.1415925706236387
 3.141592553629765
 3.141592638688632
 3.1415926041682325
 3.1415926141650266
 5.16191365590357E-8
 3.942476676500724E-8
 1.4901161193847656E-8
 2.318076668099177E-7
 3.141592638688632
 2.1073424255447017E-8
 1.4901161193847656E-8
 3.1415925440890686
 3.141592535315493
 3.1415925381658947
 3.141592548222672
 3.1415925492816648
 3.14159255035152
 3.1415925570192313
 3.1415925570192313
 3.141592551432579
 3.141592627780225
 3.1415926170895516
 3.1415926170895516
 3.1415926170895516
 3.1415926141650266
 3.1415925733445844
 3.141592564182826
 3.141592562949568
 3.141592571972772
 3.1415925570192313
 3.1415925617328666
 3.141592548222672
 3.141592559346575
 3.1415925410884933
 3.1415926088863095
 3.1415925869497743
 3.1415926088863095
 3.1415926170895516
 3.141592638688632
 3.141592577608481
 3.141592569296096
 3.1415925869497743
 3.14159258058931
 3.1415926041682325
 3.14159258058931
 3.14159258058931
 3.1415925886371374
 3.1415925836971517
 3.1415926325163688
 3.1415926202697837
 3.1415926237874707
 3.141592638688632
 2.5809568279517854E-8
 3.141592638688632
 3.332000937312528E-8
 3.141592606468184
 3.1415926237874707
 3.1415926141650266
 3.141592653589793
 4.942156062059701E-8
 4.2146848510894035E-8
 5.16191365590357E-8
 3.1415925471742168
 2.5809568279517854E-8
 3.1415925939851483
 3.1415926325163688
 3.332000937312528E-8
 5.771194914292422E-8
 4.470348358154297E-8
 5.771194914292422E-8
 2.1073424255447017E-8
 3.1415926237874707
 3.1415925122249657
 3.1415926088863095
 0.
 3.1415926114429444
principal angle 3
Perm: use previous
 1.5707962338154355
 1.5707964305163773
 1.5707964281559672
 1.570796424800061
 1.570796421538212
 1.5707964171964341
 1.570796415968799
 1.5707964203441607
 1.5707964221522415
 1.5707963469781994
 1.5707964662171814
 1.5707965150762127
 1.5707963092468653
 1.5707963425364626
 1.5707962522085868
 1.5707962513326958
 1.570796408712548
 1.5707962643698163
 1.5707962469409136
 1.570796247076247
 1.5707962480471693
 1.5707962521596117
 1.5707964102645964
 1.5707963494342088
 1.5707963408637446
 1.5707963497474156
 1.5707963523224893
 1.570796343575123
 1.5707962741399482
 1.5707962491009868
 1.5707962730876537
 1.5707962641070794
 1.570796260629182
 1.5707962621213443
 1.570796247180496
 1.5707962641811108
 1.5707962530283406
 1.5707963675831218
 1.5707963119414874
 1.5707963124534996
 1.5707963569753391
 1.5707963334962056
 1.5707962981436634
 1.570796283419934
 1.5707962994912654
 1.5707963039738655
 1.570796274726055
 1.5707963746282654
 1.5707963579482618
 1.5707963653896213
 1.5707963680008226
 1.570796350841405
 1.570796353157863
 1.570796268038299
 1.5707963385522454
 1.570796398463986
 1.5707963372577471
 1.5707963102925226
 1.5707963270942986
 1.5707962845852288
 1.5707962836890392
 1.5707963800851348
 1.5707963290577707
 1.5707963507966562
 1.5707955554679742
 1.5707964191242496
 1.5707964355725723
 1.5707964278619158
 1.5707964172246138
 1.570796421332303
 1.5707962079180386
 1.5707964489328794
 1.5707964528110632
 1.5707961954566954
 1.570796475860511
 1.570796392177843
 1.5707962409905825
 1.5707962487162899
 1.570796248837715
 1.5707962265434787
 1.5707962956070398
 1.5707962931226445
 1.5707962797930914
 1.5707963777551321
 1.57079635679624
 1.5707962462393443
 1.5707964470953693
 1.5707963120982473
 1.5707964779988721
 1.5707963091572794
 1.5707964242311534
 1.5707964278325495
 1.570796431303229
 1.5707964256589706
 1.5707964201772155
 1.5707964260382488
 1.5707964194291648
 1.5707964254740625
 1.5707964177518727
 1.5707963604152422
 1.5707963639246745
 1.570796355990313
 1.5707963749231886
 1.5707963537841654
 1.570796179073647
 1.5707964837642225
 1.570796488017596
 1.5707964817793154
 1.570796485745074
 1.5707964890423791
 1.570796503061346
 1.5707964920621103
 1.5707965190776623
 1.570796408781193
 1.5707963492929773
 1.5707963712160762
 1.5707963117221029
 1.5707962926005832
 1.5707964004181831
 1.5707964217066848
 1.5707964162817263
 1.5707964251405802
 1.570796423872761
 1.5707964240722445
 1.5707964237802514
 1.5707964344465308
 1.570796216154103
 1.5707962980977608
 1.5707964251992412
 1.5707963588422
 1.570796364631287
 1.5707962831655502
 1.5707962991380375
 1.5707962716991157
 1.5707962811532212
 1.570796270970454
 1.570796253831889
 1.5707963858564735
 1.5707963823209397
 1.57079637769832
 1.570796373821863
 1.570796295389407
 1.5707959695270493
 1.570796389476707
 1.570799581151277
 1.5707962566603308
 1.5707958820389525
 1.5707964878178262
 1.570796497147989
 1.5707963464769237
 1.5707963042637376
 1.570796318420527
 1.5707963160669929
 1.5707960551102622
 1.5707963320727658
 1.570796429664979
 1.5707964339347706
 1.570796426477973
 1.5707964166629655
 1.5707964206572775
 1.5707964394067169
 1.5707964445030544
 1.570796447322084
 1.5707964595509483
 1.5707964790658655
 1.570796390730933
 1.5707963964654592
 1.5707964017269584
 1.5707964080236072
 1.5707964267362913
 1.5707963387084234
 1.5707963758596029
 1.570796365815427
 1.5707962759098413
 1.5707962873265917
 1.5707963240401164
 1.5707960959003038
 1.5707963147878288
 1.5707963465038848
 1.5707963396474562
 1.5707964357686202
 1.570796444129541
 1.5707964421360459
 1.5707964322451398
 1.570796431032528
 1.5707964299574886
 1.570796422748608
 1.5707964225709448
 1.5707964286040035
 1.5707963004244574
 1.5707962938102478
 1.570796358641742
 1.570796362767464
 1.570796288816679
 1.5707964058908828
 1.5707964144292879
 1.5707964150670959
 1.5707964063357829
 1.570796421072097
 1.5707964166195696
 1.5707964287437133
 1.5707964196077937
 1.5707964397557297
 1.5707962822900625
 1.5707962671993978
 1.5707962953781178
 1.5707962990490643
 1.5707963215220984
 1.5707964023577141
 1.5707964051808467
 1.5707963847826725
 1.5707963918085799
 1.5707963699902363
 1.5707963955596256
 1.5707963945365573
 1.5707963900865072
 1.5707963921849053
 1.5707963203312447
 1.5707963004882275
 1.5707963049768188
 1.5707963139404857
 1.5707963017131632
 1.5707963321845289
 1.5707962935564197
 1.5707963724444096
 1.5707963536363283
 1.5707963647211431
 1.5707963309124926
 1.5707962783965508
 1.5707962860343998
 1.5707962810057219
 1.5707964335557985
 1.570796300635251
 1.5707962677957443
 1.5707963485298122
 1.5707963584986326
 1.570796372430353
 1.5707963444325208
 1.5707963662982318
 1.5707963233020652
 1.5707963558371982
 1.5707964682135946
 1.5707962827654087
 1.5707963202909303
 1.5707962849753716
principal angle 4
Perm: use previous
 0.6799201705711353
 1.1503584407484202
 0.5377461206906204
 0.20858083059829793
 0.5315557102353321
 0.18203617567867017
 0.06805999615448101
 0.19349972151381856
 0.8159399756016958
 1.0748917187619267
 1.3721201041325268
 1.0718824847979738
 0.4962505307228866
 0.6985037806867818
 0.1047485746470022
 1.348855054117858
 0.14958383891156718
 0.489021916116326
 0.02419760262815579
 0.560429617870461
 0.01156989002901764
 0.5133815091028896
 0.2171223753643074
 0.47810292881690014
 0.5837979485495135
 0.08030907082786451
 0.7083989210503346
 0.7018213282528032
 0.3096437856987754
 0.4814593307324216
 1.349245343375382
 0.2516161101329783
 0.2749430507792483
 0.02443974968859638
 0.2339408678727503
 0.573612188124173
 0.49812613491737606
 0.8869531367636508
 0.6930482322644841
 1.2019203923406097
 0.8904459213161366
 0.7298623657813638
 0.46086378880775636
 0.5605141381057972
 0.4407968920068609
 1.4793120520631549
 1.5504351251789525
 1.120923065590887
 0.5835282912092812
 0.6370587892499342
 0.4869740528619604
 0.4524564468790875
 0.988664172137532
 1.5024553146508484
 1.0597804097285566
 0.6996261954959047
 0.39816622208822006
 1.1035175984684382
 0.7535402951704865
 0.6898811580813617
 1.4863945970514516
 1.0732014476108862
 0.8584810237956445
 0.884704011405835
 0.537117630451867
 0.4806213238100502
 0.8387462001176847
 1.3243184111878905
 1.261484607659692
 0.5264672819681274
 0.34332034359998037
 0.13111674055546546
 0.03390936944044141
 0.03195718039294499
 0.3315774316543459
 1.265762197952295
 0.9313783845616873
 0.4812108360726882
 0.3571719356269799
 0.0075292339320126005
 0.1983425386418057
 0.7388825425454912
 1.4992881507650073
 0.04226543700931375
 0.3806665327385341
 0.3285705216141418
 0.6366822502780453
 1.5379681693868008
 0.03046532528429773
 0.2238166149240637
 0.6113175172523372
 0.9594724088739415
 0.7739355955609653
 0.3104633863092166
 0.8952752491500069
 0.7783134830404294
 0.7968509970968439
 0.7836541692709849
 0.7871327929445867
 1.0533749401454175
 1.3901711428681023
 0.5680236655575477
 0.10160637763491766
 0.30759909467378505
 0.49240460085087223
 0.24274550115927698
 0.24811883204457538
 0.46710994164620906
 0.10678137225182939
 0.10982834853884672
 0.0005290951581405269
 0.02005299010045732
 0.4641836003019477
 1.5297100131870605
 1.2541008904459374
 1.2560463039824663
 1.1453150875583924
 0.6523084192574355
 1.4252946148207737
 0.07987470075303128
 0.9657371129318808
 0.17038236743315568
 1.2790453953023928
 0.13535761489105247
 0.556490463039623
 0.13236725456240886
 0.042317001649232286
 1.274676295360941
 1.2655446828966825
 0.9073849726193958
 0.6352614144849416
 1.022615866469301
 0.2749183679183081
 1.2270895690535317
 0.7394689107315561
 1.5412585827552305
 1.5014570782900167
 1.3748318673907491
 0.06994478087792531
 0.17036998280711846
 1.2678298995563766
 0.41720764968045515
 1.0020682779053256
 1.4231225777568504
 0.1746211401021767
 0.12111245729105861
 0.34840002977751044
 0.5140338687192247
 0.7772429473030684
 0.006130601080082647
 1.4593220689476072
 1.1196619704354098
 0.23982579171868632
 0.12638638050693457
 0.2999604877283058
 0.7384178572478184
 0.7683093541733494
 0.5677740741083339
 0.2138606462440797
 0.9564787519809125
 0.6498565511553757
 0.10584852971144808
 0.010232738766967614
 0.05187473278346022
 0.340005140950533
 1.2554875605614975
 0.9573594788881522
 1.1882526068541248
 0.7241900558269827
 1.3187982246651964
 0.4627789739625799
 0.8638747525717715
 0.8869148881151456
 0.3213889535302748
 0.7367102624599762
 0.4715983050463069
 0.8417970029911758
 1.5402062840232957
 0.15247948432283517
 0.3790294350735786
 0.4862380011849876
 0.7724415210454668
 1.0485426154949151
 1.5344404991096992
 1.3604887089807953
 1.2893249183096964
 1.3131186066733158
 0.9432801519786761
 0.8201368613152481
 1.2526305013605876
 1.2694676430166727
 0.3475289113602857
 0.11055222615072563
 0.24188813825034097
 0.7143952390661126
 0.07090345205319086
 0.32204747523230176
 0.27541988373293586
 0.11843542035305783
 0.014110569426907754
 0.03486098268344604
 0.4518521108824538
 0.3111212576272554
 1.225097158106271
 1.3692196977126772
 1.4464681501206869
 1.5285242342552046
 1.0622376460939242
 1.1826817547677144
 0.044209070105011454
 0.8733435216662655
 0.3593988527872328
 1.225861709515085
 0.18316103325438088
 0.8217737728117986
 0.15657695270902902
 1.40428124687794
 1.4794613259143912
 1.0940179413892355
 0.4823417072785954
 0.6750780995109938
 1.0303702315182324
 0.5792553302333888
 1.1788625975945686
 0.9732089633919462
 1.4144410621123802
 0.5091798867170156
 1.023407266404471
 0.12532580582449399
 0.6066136488854161
 0.08641161453104244
 0.7131337018642381
 1.0486371355462418
 1.0590078607276137
 0.09606667058653462
 0.4861421700775957
 0.47654341210770484
 0.5746671925599279
 0.7578976734992247
 0.5442037508777998
 1.3790740578531624
 0.5132505826124474
 0.09616456454346015
 0.07865605444428814
 0.4227392543305902
principal angle 5
Perm: use previous
 1.5707962682843362
 1.5707964169044288
 1.570796264718223
 1.5707963394240125
 1.5707963677554644
 1.57079630221224
 1.5707963236460323
 1.5707963343028761
 1.5707962434666474
 1.5707963375685003
 1.570796329644286
 1.5707963281736768
 1.5707963258358575
 1.570796315930759
 1.5707963573071322
 1.570796260814861
 1.5707963147077628
 1.570796295598908
 1.570796331481139
 1.570796373549478
 1.5707963366697517
 1.5707963728097036
 1.5707963339691446
 1.5707963546769965
 1.5707963189089698
 1.5707963382196182
 1.5707963219726377
 1.5707963103439007
 1.5707963505760123
 1.5707963749027496
 1.570796270358354
 1.570796360745652
 1.570796361558761
 1.5707963377754763
 1.570796355590576
 1.5707962996612652
 1.5707963720057574
 1.5707963520226071
 1.5707963618285867
 1.5707963470361812
 1.5707963152456914
 1.570796320151254
 1.570796329404883
 1.5707963257168436
 1.5707963442672623
 1.5707962951376324
 1.57079628950201
 1.5707963609106628
 1.5707963381552061
 1.570796342632454
 1.5707963330517938
 1.5707963292062188
 1.5707963243697256
 1.5707963374023206
 1.5707963106229073
 1.5707963137603724
 1.5707963276745884
 1.5707963117467694
 1.5707963356873584
 1.5707963267935403
 1.5707962938704183
 1.5707963514164631
 1.570796344216469
 1.5707963441529862
 1.5707963463862278
 1.570796279194669
 1.570796241498418
 1.5707964170112612
 1.570796409685678
 1.570796266876166
 1.5707963784522485
 1.5707963055957803
 1.5707963222537766
 1.570796325166458
 1.5707962700256943
 1.5707962641606765
 1.5707962701568479
 1.5707963686941924
 1.5707963602423767
 1.5707963313814894
 1.5707963436966448
 1.5707963714401894
 1.570796374771176
 1.5707963214677352
 1.5707963056264276
 1.5707963250847163
 1.5707963312778574
 1.570796350899437
 1.5707963369692348
 1.5707963434398562
 1.5707962645611564
 1.5707964104338301
 1.5707962449494564
 1.5707963514044772
 1.5707963970477323
 1.5707962530294162
 1.5707963855936853
 1.5707963892059187
 1.5707962508428892
 1.5707963509437914
 1.5707962926272754
 1.5707963010376755
 1.5707963181031388
 1.5707963085381436
 1.5707964009067559
 1.5707962825819148
 1.57079627696859
 1.5707962484833988
 1.5707963022335232
 1.5707963028694842
 1.5707963218438612
 1.5707963212436393
 1.5707962368467916
 1.570796336758295
 1.5707963027416538
 1.5707963028318217
 1.570796347751226
 1.5707963035540446
 1.570796252708638
 1.5707963158340557
 1.5707962482476123
 1.5707963037648618
 1.5707962359231846
 1.5707963346900131
 1.57079637459427
 1.5707963095617112
 1.5707963243376433
 1.5707963344477873
 1.5707963255659623
 1.5707963316590627
 1.5707963280196784
 1.5707963371555698
 1.5707963431807603
 1.5707963671604055
 1.5707963688037905
 1.570796279600916
 1.570796385490768
 1.5707962788187255
 1.5707963262385447
 1.5707963163987766
 1.5707963646540337
 1.5707963296011993
 1.5707963313757736
 1.5707963318187388
 1.5707963225421724
 1.5707963219714607
 1.5707963239473937
 1.5707963329094763
 1.5707963294348906
 1.5707963402472962
 1.570796347499774
 1.5707963396778255
 1.5707963361247224
 1.5707963339961348
 1.570796337454789
 1.5707962490449738
 1.5707962443035137
 1.5707963734133503
 1.5707963358442294
 1.5707962421174626
 1.5707963940791188
 1.570796298282168
 1.5707963129471887
 1.5707963187788445
 1.5707962751126991
 1.5707962597053529
 1.5707962542605358
 1.570796251674118
 1.5707963684542827
 1.570796413664398
 1.5707963370900822
 1.5707963612128266
 1.570796283160441
 1.5707963457377383
 1.5707963597999497
 1.5707963335231405
 1.570796341212692
 1.5707963474127231
 1.5707963313118256
 1.5707963355503827
 1.5707962628898544
 1.5707964007279007
 1.5707962241215094
 1.5707962150262456
 1.5707964215156265
 1.5707962284797108
 1.5707964088322934
 1.5707964020920766
 1.570796252411458
 1.570796313234763
 1.5707963123738995
 1.570796308728053
 1.570796315646111
 1.5707963250189567
 1.5707963779915226
 1.5707963035480605
 1.570796334201485
 1.570796286609987
 1.5707963144992418
 1.5707963040836714
 1.570796305412585
 1.5707963527375481
 1.5707962905743318
 1.5707963586371254
 1.570796357070798
 1.5707962875545107
 1.570796361308787
 1.5707963428608482
 1.5707962656458512
 1.5707962911823306
 1.5707962604126409
 1.5707962699851934
 1.5707962647616363
 1.5707963164682122
 1.5707963543224979
 1.5707963217038983
 1.570796392213282
 1.5707963417044977
 1.5707963327636398
 1.5707963024873188
 1.5707963316444715
 1.5707963363246673
 1.570796330655885
 1.5707963568106935
 1.5707963565090919
 1.5707962925142422
 1.5707962940606863
 1.570796302295432
 1.5707963443473043
 1.570796309543743
 1.5707963464959462
 1.5707963233708364
 1.5707963324507275
 1.5707963247897843
 1.5707963230581332
 1.5707963372576845
 1.570796339288917
 1.5707963457562661
 1.570796350841328
 1.5707963384562658
 1.5707963415060857
 1.570796327328804
 1.570796326329444
 1.570796327556993
 1.570796338935383
principal angle 6
Perm: use previous
 2.250716497366028
 0.42043788604648713
 2.1085424474855126
 1.362215496196599
 1.0392406165595665
 1.7528325024735651
 1.502736330640415
 1.3772966052810782
 2.3867363023965855
 2.645688045556823
 2.9429164309274234
 2.6426788115928703
 1.07454579607201
 0.8722925461081149
 1.466047752147899
 2.919651380912745
 1.720380165706463
 2.0598182429112217
 1.594993929423051
 1.0103667089244381
 1.5823662168239134
 1.0574148176920097
 1.3536739514305896
 2.0488992556117958
 0.9869983782453831
 1.6511053976227599
 0.862397405744562
 0.8689749985420938
 1.2611525410961222
 1.089336996062478
 2.920041670170271
 1.3191802166619209
 1.2958532760156503
 1.5952360764834916
 1.3368554589221482
 2.144408514919069
 1.072670191877523
 2.457749463558547
 2.2638445590593794
 2.7727167191355053
 0.68035040547876
 0.840933961013533
 2.031660115602653
 2.1313104649006935
 2.011593218801757
 3.050108378858046
 3.1212314519738165
 0.4498732612040108
 0.9872680355856155
 0.9337375375449627
 1.0838222739329364
 1.118339879915809
 0.5821321546573643
 3.073251641445744
 0.5110159170663405
 0.871170131298992
 1.1726301047066767
 2.674313925263334
 0.8172560316244102
 2.260677484876258
 3.057190923846341
 0.49759487918401124
 0.7123153029992524
 0.6860923153890618
 1.0336786963430302
 2.051417650604944
 2.409542526912574
 0.24647791560702342
 0.30931171913521666
 2.0972636087630194
 1.2274759831949202
 1.7019130673503606
 1.6047056962353372
 1.602753507187842
 1.9023737584492373
 2.836558524747185
 2.5021747113565804
 1.0895854907222104
 1.2136243911679183
 1.5783255607269129
 1.3724537881530916
 0.8319137842494073
 0.07150817602990618
 1.528530889785584
 1.9514628595334298
 1.2422258051807549
 0.9341140765168513
 0.03282815740810551
 1.601261652079194
 1.7946129417189596
 2.1821138440472296
 0.6113239179209627
 2.344731922355855
 1.260332940485681
 0.6755210776448948
 2.3491098098353205
 0.7739453296980561
 0.7871421575239156
 2.3579291197394774
 0.5174213866494798
 2.9609674696629953
 2.1388199923524436
 1.6724027044298142
 1.878395421468681
 1.078391725944031
 1.8135418279541693
 1.8189151588394665
 2.0379062684410982
 1.6775776990467233
 1.6806246753337404
 1.5713254219530173
 1.5908493168953541
 2.0349799270968343
 0.04108631360783815
 2.8248972172408333
 2.8268426307773615
 0.42548123923650477
 2.2231047460523317
 2.996090941615651
 1.6506710275479266
 2.536533439726771
 1.7411786942280507
 2.849841722097274
 1.4354387119038448
 1.014305863755276
 1.7031635813573045
 1.61311332844413
 2.8454726221558375
 2.836341009691579
 0.6634113541755008
 0.9355349123099551
 0.5481804603255955
 1.295877958876589
 0.34370675774136716
 0.8313274160633422
 3.1120549095500882
 0.0693392485049054
 2.9456281941856393
 1.500851545916972
 1.741166309602015
 0.30296642723852263
 1.1535886771144415
 0.5687280488895711
 0.14767374903804628
 1.7454174668970732
 1.449683869503838
 1.222396297017386
 1.0567624580756718
 0.7935533794918284
 1.5769269278749611
 0.11147425784729151
 0.45113435635948695
 1.810622118513583
 1.6971827073018309
 1.870756814523202
 2.309214184042709
 2.339105680968239
 1.003022252686565
 1.3569356805508173
 2.5272750787758014
 0.9209397756395257
 1.6766448565063403
 1.5605635880279407
 1.5189215940114373
 1.9108014677454255
 2.8262838873563862
 2.5281558056830433
 2.759048933649013
 0.8466062709679155
 0.2519981021297157
 1.108017352832317
 0.7069215742231262
 2.45771121491004
 1.2494073732646227
 0.8340860643349213
 1.0991980217485897
 0.728999323803721
 0.030590042771609
 1.7232758111177313
 1.949825761868475
 2.057034327979879
 0.7983548057494352
 2.6193389422897995
 3.105236825904424
 0.2103076178141233
 2.8601212451045748
 0.2576777201215947
 0.6275161748162263
 2.3909331881101394
 0.3181658254343091
 0.30132868377822436
 1.2232674154346117
 1.681348552945622
 1.8126844650452376
 0.8564010877287866
 1.6416997788480843
 1.2487488515625946
 1.8462162105278295
 1.4523609064418395
 1.5849068962217845
 1.5359353441114576
 1.1189442159124434
 1.8819175844221498
 2.795893484901166
 2.9400160245075715
 0.12432817667421557
 3.099320561050087
 2.6330339728888204
 2.7534780815626054
 1.6150053968998948
 2.4441398484611576
 1.9301951795821246
 2.7966580363099753
 1.3876352935405158
 0.7490225539830986
 1.4142193740858673
 0.16651507991696987
 3.050257652709286
 2.664814268184132
 1.0884546195163018
 2.2458744263058907
 2.601166558313129
 0.9915409965615078
 0.39193372920032943
 0.5975873634029515
 2.9852373889072727
 2.0799762135119106
 2.594203593199367
 1.4454705209704035
 2.1774099756803125
 1.6572079413259362
 0.8576626249306585
 0.522159191248655
 0.5117884660672829
 1.4747296562083616
 2.056938496872492
 1.094252914687192
 0.996129134234969
 0.8128986532956726
 1.0265925759170969
 0.19172226894173472
 2.084046909407344
 1.6669608913383565
 1.4921402723506088
 1.9935355811254865
principal angle 7
Perm: use previous
 0.8908761562185255
 0.4204378860417583
 1.0330502061031201
 1.3622154961871171
 1.039240616554499
 1.3887601511268062
 1.5027363306370103
 1.377296605283602
 0.7548563511963122
 0.4959045959016736
 0.19867621364309113
 0.4989138552118168
 1.074545795179163
 0.8722925479720807
 1.4660477521825488
 0.22194127271899527
 1.4212124879715353
 1.0817744106575655
 1.5465987241550603
 1.0103667089207713
 1.559226436767743
 1.0574148176956812
 1.3536739514883223
 1.0926933984665077
 0.9869983782527775
 1.4904872558492386
 0.8623974055490671
 0.8689749985927634
 1.261152541111078
 1.0893369960021932
 0.22155098334311563
 1.3191802165898365
 1.2958532759671908
 1.546356577133584
 1.3368554590772528
 0.9971841386429451
 1.072670191859773
 0.6838431901861568
 0.8777480945897779
 0.3688759333139247
 0.6803504059646691
 0.840933961297893
 1.1099325368924517
 1.0102821891456697
 1.1299994348877225
 0.09148427489707218
 0.02036120173649383
 0.44987326031733166
 0.9872680354882937
 0.9337375375019744
 1.0838222758784557
 1.118339876894325
 0.5821321543855126
 0.06834102230361316
 0.5110159132214825
 0.8711701306644445
 1.1726301002126966
 0.4672787295736378
 0.8172560314788587
 0.8809151691253728
 0.08440172954066956
 0.49759487808119085
 0.71231530374731
 0.6860923167758574
 1.0336786986874904
 1.0901750029929638
 0.7320501266786367
 0.24647791561006707
 0.309311719166714
 1.0443290448155982
 1.2274759832336826
 1.4396795862233804
 1.53688695734778
 1.5388391464026407
 1.239218895153145
 0.305034128880472
 0.6394179422812657
 1.0895854907167053
 1.2136243913867066
 1.5632670928640309
 1.3724537886390227
 0.8319137841035152
 0.07150817599069181
 1.528530889946003
 1.1901297942136182
 1.2422258083470998
 0.9341140755933327
 0.03282815591337536
 1.5403310367255396
 1.3469797076629648
 0.9594788095420734
 0.6113239179242294
 0.7968607312340747
 1.2603329404866932
 0.6755210776433949
 0.7924828437544505
 0.7739453296977165
 0.7871421575239255
 0.783663533850338
 0.517421387109048
 0.18062518395296423
 1.0027726613802252
 1.469189949002914
 1.2631972320765694
 1.0783917258368454
 1.3280508256419277
 1.3226774947616855
 1.1036863851912682
 1.4640149545267087
 1.4609679782593092
 1.5702672316366195
 1.5507433366941799
 1.1066127265277654
 0.04108631263961517
 0.31669543683177764
 0.3147500230474778
 0.4254812391963752
 0.9184879074409512
 0.14550171199442333
 1.4909216260009486
 0.605059213759226
 1.4004139593599867
 0.2917509314814623
 1.4354387119008967
 1.0143058637382054
 1.4384290722402364
 1.528479325149136
 0.29612002948533606
 0.30525164584585884
 0.6634113581441039
 0.9355349136482753
 0.5481804576908992
 1.2958779560940794
 0.3437067573569291
 0.8313274158190097
 0.029537744021484152
 0.06933924851796522
 0.1959644590910028
 1.5008515459312748
 1.4004263439657316
 0.30296642749990643
 1.1535886747884412
 0.5687280501716627
 0.14767374922825488
 1.3961751891178256
 1.4496838741732225
 1.2223962964786126
 1.0567624478807691
 0.7935533794478754
 1.5646657264941244
 0.11147425930748188
 0.45113436055226397
 1.3309705428866303
 1.444409933502551
 1.2708358379809002
 0.8323784695435362
 0.8024869726214114
 1.003022252692058
 1.3569356805447015
 0.6143175748198298
 0.9209397756874571
 1.4649477970849485
 1.5605635880244109
 1.5189215939817244
 1.23079118589748
 0.3153087667958266
 0.6134368483001152
 0.3825437198285169
 0.8466062709725994
 0.25199810221873636
 1.1080173488473692
 0.7069215737522215
 0.6838814386395546
 1.2494073738855036
 0.8340860645987521
 1.0991980216930695
 0.7289993240777051
 0.030590043515057952
 1.4183168462217095
 1.1917668932823071
 1.0845583256023228
 0.7983548057495683
 0.5222537113075164
 0.036355827684492234
 0.21030761780906573
 0.2814714084621965
 0.2576777201136325
 0.6275161748150268
 0.750659465478658
 0.31816582425842055
 0.3013286819033087
 1.2232674171610527
 1.4602440933774603
 1.3289081898354373
 0.856401087628993
 1.499892874734761
 1.2487488516035221
 1.295376443181517
 1.4523609064867522
 1.5566857573718762
 1.5359353441164614
 1.1189442159342444
 1.2596750690892216
 0.34569916739972273
 0.201576630455188
 0.1243281765559228
 0.0422720925696349
 0.5085586801746825
 0.3881145731403196
 1.5265872567518866
 0.6974528054156751
 1.2113974742887492
 0.34493461734723074
 1.3876352936131515
 0.7490225539864878
 1.41421937393943
 0.16651508011634517
 0.09133500183423332
 0.4767783861774513
 1.0884546174535572
 0.8957182269693936
 0.5404260962539472
 0.9915409965249765
 0.39193372968827345
 0.5975873641073074
 0.15635526465046953
 1.0616164402219574
 0.5473890595561284
 1.4454705206945364
 0.9641826779633972
 1.4843847121018339
 0.8576626248954258
 0.5221591948805996
 0.5117884708979287
 1.4747296466228055
 1.0846541561034322
 1.0942529152440954
 0.9961291333120617
 0.8128986532619333
 1.0265925742632187
 0.19172226677260526
 1.0575457480880406
 1.4746317614244882
 1.4921402746003476
 1.148057073894897
principal angle 8
Perm: use previous
 1.5707964014655502
 1.570796283532835
 1.5707964088078232
 1.570796229397002
 1.5707962421170223
 1.5707964153819476
 1.5707962351140596
 1.5707962333971628
 1.5707963842762234
 1.570796332383497
 1.5707963233268287
 1.570796322607923
 1.5707963345218978
 1.5707963304906996
 1.5707962567964728
 1.5707963429102683
 1.570796402967124
 1.570796388041344
 1.5707964055081214
 1.5707962690370594
 1.5707964086871427
 1.5707962663956545
 1.570796236666165
 1.5707963037888137
 1.5707963551932633
 1.5707963001942487
 1.5707963606320139
 1.5707963497094748
 1.570796273413456
 1.5707962781796392
 1.570796363428491
 1.570796268419151
 1.570796266274713
 1.5707963928317663
 1.570796258617983
 1.5707963886554608
 1.570796262492742
 1.5707963216676297
 1.5707963334113475
 1.570796335144173
 1.5707963375738077
 1.5707963408308043
 1.5707963560658356
 1.5707963667740503
 1.5707963698346958
 1.5707963614000953
 1.570796336225948
 1.5707963063573671
 1.570796288869413
 1.5707962909435298
 1.5707962962157804
 1.570796341191827
 1.570796347201215
 1.5707963364077135
 1.5707963222977699
 1.5707963281952022
 1.5707963159883747
 1.570796340745124
 1.570796319976189
 1.5707963714998419
 1.5707963308483817
 1.5707963075550984
 1.570796327800228
 1.5707963324515652
 1.5707963389022743
 1.5707964125594933
 1.5707963894190469
 1.5707962961870416
 1.570796290521195
 1.570796405325908
 1.570796218818642
 1.5707964468241151
 1.570796447794927
 1.570796457461929
 1.5707964631050788
 1.5707963464201367
 1.5707963795808353
 1.5707962577760604
 1.5707962480743078
 1.570796422868289
 1.5707962991495856
 1.570796311290354
 1.5707963277101504
 1.5707962807796803
 1.5707963590000364
 1.5707963213726008
 1.5707963262991735
 1.570796328045508
 1.5707963293774192
 1.57079632843574
 1.5707964052461953
 1.5707962598610437
 1.5707963971562156
 1.5707962251372058
 1.5707962603829704
 1.570796389711721
 1.5707962558331872
 1.5707962533803839
 1.5707963882484632
 1.5707963119350623
 1.5707963237326905
 1.570796350809195
 1.5707963601873465
 1.5707963607315283
 1.5707961916551432
 1.570796475906138
 1.5707964797161684
 1.570796459719829
 1.5707964867414956
 1.570796484297634
 1.5707964997915458
 1.570796496919832
 1.5707964958696259
 1.5707963236237636
 1.5707963241289264
 1.5707963244787657
 1.5707963145465516
 1.5707963572985182
 1.5707963321836975
 1.5707964177566471
 1.5707963741762694
 1.5707964232745042
 1.570796347055664
 1.5707962267887807
 1.570796240996324
 1.5707964305202418
 1.5707964409512827
 1.5707963235073186
 1.5707963315410063
 1.5707963210554536
 1.5707963201557655
 1.5707963229952564
 1.5707962979587813
 1.570796323092642
 1.5707962988049138
 1.5707963377015366
 1.5707963230143855
 1.5707963329511347
 1.5707962732846596
 1.5707963699853122
 1.5707963072907465
 1.5707963331045214
 1.5707963330326142
 1.5707963315289992
 1.5707963261876732
 1.570796329344078
 1.5707963248786032
 1.570796327468868
 1.5707963311545896
 1.5707963361502975
 1.5707963287663829
 1.5707963207455768
 1.5707963227698638
 1.5707963261976114
 1.5707963254874409
 1.570796397296756
 1.5707964010314273
 1.5707962407917848
 1.5707962350284634
 1.5707963776382816
 1.5707962331116012
 1.5707964458920365
 1.5707962029307547
 1.5707961922968607
 1.570796463735281
 1.5707963406118033
 1.57079635385937
 1.5707963397018505
 1.5707962574827656
 1.5707962946507446
 1.5707962992711804
 1.5707962960458417
 1.5707963535886083
 1.5707962815291832
 1.5707963015652155
 1.5707963510556964
 1.5707963448480315
 1.570796322930709
 1.570796309298216
 1.5707963107140295
 1.5707964171039934
 1.5707962344403004
 1.5707963800071485
 1.5707963255355442
 1.5707963008452246
 1.5707963459198073
 1.5707962928689787
 1.5707962604888046
 1.5707963910441771
 1.5707963266184395
 1.5707963142387484
 1.570796329039387
 1.5707963181740359
 1.570796320187314
 1.570796254714044
 1.570796414583357
 1.5707962365697896
 1.5707963995523733
 1.5707962366826687
 1.570796410239443
 1.5707962245097393
 1.5707962343526982
 1.5707964359675488
 1.5707963078339482
 1.5707962918256966
 1.570796301430501
 1.570796301577942
 1.570796305802095
 1.5707963393075774
 1.57079639858016
 1.5707963378009548
 1.5707963831402076
 1.5707963220565415
 1.5707962505638688
 1.5707962667925512
 1.5707962540094442
 1.5707962923616094
 1.570796306147506
 1.5707963014974549
 1.570796333589002
 1.5707963107783909
 1.570796323784442
 1.5707962949031387
 1.5707963149329525
 1.5707962897757684
 1.5707963178310107
 1.5707963565216607
 1.5707963383542305
 1.5707962849279018
 1.570796357238974
 1.57079637130461
 1.5707963297439842
 1.5707963296040768
 1.5707963273421433
 1.5707963324125243
 1.5707963211187628
 1.5707963808440315
 1.5707963723241847
 1.570796363978805
 1.5707963520409254
 1.5707963135770011
 1.5707963241875467
 1.570796291724128
 1.5707963460363827
 1.5707962948559455
principal angle 9
Perm: use previous
 0.6799201705763768
 1.9912342128366523
 0.537746120691784
 2.93301182298199
 2.6100369433493875
 0.18203617566811267
 3.0735326574318447
 2.9480929320784757
 0.8159399755985876
 1.074891730893223
 1.372120113151806
 1.0718824715830797
 2.6453421219740596
 2.4430888747669774
 3.0368440789774214
 1.3488550540759021
 0.1495838388233813
 0.48902191613733564
 0.024197602639966845
 2.5811630357156643
 0.011569890027443894
 2.628211144490573
 2.9244702782831995
 0.4781029283283894
 2.557794705047673
 0.08030907094566284
 2.4331937323439625
 2.4397713253876594
 2.8319488679059694
 2.660133322797087
 1.3492453434517842
 2.8899765433847255
 2.8666496027620805
 0.02443974966140111
 2.907651785872139
 0.5736121881519556
 2.6434665186546646
 0.8869531366087399
 0.6930482322051187
 1.201920393480972
 2.2511467327595653
 2.411730288092789
 0.46086378990244586
 0.5605141376492286
 0.44079689190717636
 1.4793120518978307
 1.550435125058404
 2.0206695871122275
 2.5580643622831887
 2.5045338642968695
 2.6546186026733514
 2.6891362036892215
 2.1529284811804086
 1.502455304491284
 2.0818122400163794
 2.441966457459341
 2.743426427007593
 1.1035175972212594
 2.388052358273755
 0.6898811576695258
 1.4863945972542274
 2.068391204876087
 2.2831116305422063
 2.256888643570754
 2.6044750254823867
 0.4806213238019417
 0.838746200116264
 1.8172742424049615
 1.8801080459616082
 0.5264672819793055
 2.7982723100285605
 0.13111674057157177
 0.03390936944733141
 0.03195718039252456
 0.3315774316417818
 1.2657621979144251
 0.9313783845136336
 2.6603818175115963
 2.7844207181815936
 0.007529233931481758
 2.943250115433917
 2.4027101108984117
 1.6423045027855876
 3.099327216740874
 0.38066653258127986
 2.813022135141996
 2.504910402388229
 1.6036244827082724
 0.03046529006935669
 0.2238166191319318
 0.6113175172528298
 2.1821202447191212
 0.7739355955608268
 2.8311292672815718
 2.2463174044382868
 0.7783134830404501
 2.344741656492608
 2.3579384843188165
 0.7871327929445622
 2.088217713903944
 1.3901711428419326
 0.5680236654146719
 0.1016063777919882
 0.30759909471832914
 2.64918805263172
 0.2427455011530166
 0.24811883203326024
 0.46710994160365027
 0.106781372268309
 0.10982834853570064
 0.0005290951864681553
 0.020052990101437337
 0.46418360026716676
 1.6118826394345103
 1.254100889963119
 1.2560463037474188
 1.9962775659912717
 0.6523084193539463
 1.4252946148004733
 0.07987470079400069
 0.9657371130356731
 0.17038236743493795
 1.2790453953134349
 3.0062350386957557
 2.5851021905330938
 0.13236725455470094
 0.042317001645915085
 1.2746762973095604
 1.2655446809490378
 2.2342076849390002
 2.506331240443172
 2.118976784485796
 2.866674282888974
 1.9145030841518256
 2.4021237426139055
 1.5412585827734127
 1.640135575312861
 1.3748318677038942
 3.071647872726151
 0.1703699828291707
 1.8737627542948025
 2.7243850015833377
 2.139524376966559
 1.7184700760231513
 0.17462113767707096
 3.0204802009681186
 2.793192623273509
 2.6275587746756655
 2.364349706242772
 0.0061306003007703235
 1.6822705861023783
 2.0219306873471607
 0.23982578390826637
 0.12638639329234563
 0.29996048881399634
 0.7384178572513652
 0.7683093541734906
 2.5738185794869466
 2.927732007339578
 0.9564787519750695
 2.491736102482345
 0.10584852971001578
 3.1313599148185616
 3.0897179207764465
 0.34000514089744643
 1.2554875599990705
 0.9573594784947823
 1.18825260696638
 2.417402597767491
 1.8227944290136306
 2.6788136756422647
 2.2777179005471173
 0.8869148881553427
 2.8202037006803966
 2.404882391393648
 2.669994348487965
 2.299795650872601
 1.6013863703099553
 0.1524794805731881
 0.37902943351258994
 0.48623800119258376
 2.3691511325444563
 1.0485426154873836
 1.5344404991104033
 1.7811039446039605
 1.2893249183327007
 1.8284740469085266
 2.1983125016099185
 0.8201368613162426
 1.8889621510533172
 1.872125008698205
 2.7940637439559493
 0.11055223341743654
 0.2418881369594595
 2.4271974144238846
 0.0709034520601897
 2.819545178398405
 0.2754198836133898
 3.0231572332816143
 0.014110569423264737
 3.106731670911208
 2.68974054272913
 0.31112125770569554
 1.2250971593951743
 1.3692196963397114
 1.695124503350817
 1.5285242342252687
 1.0622376466202144
 1.1826817536545775
 0.0442090700430676
 0.8733435213792217
 0.3593988525061524
 1.2258617094476656
 2.958431620408031
 2.319818880781381
 2.9850157007343094
 1.7373114069112379
 1.4794613249606656
 1.0940179406174462
 2.6592509442484538
 0.6750780998255033
 1.0303702305409494
 2.5623373233198716
 1.9627300564831698
 2.1683836909022025
 1.4144410621444277
 0.5091798865729403
 1.0234072672387682
 3.0162668474894256
 0.6066136488315005
 0.08641161469307453
 2.428458951690322
 2.092955521675496
 2.0825847976928253
 3.0455259734177016
 0.4861421706914643
 2.665049242038988
 2.566925460106956
 2.3836949800568283
 2.597388901058115
 1.7625185935675014
 0.5132505787068559
 0.09616456537041522
 3.062936601395242
 0.4227392529000011
strain 1
Perm: use previous
 1.4020758957151951E-11
 -7.0103599215690305E-12
 1.359726651208833E-12
 2.4854092903215405E-12
 -5.261155030602806E-12
 2.7757646657548743E-12
 -1.3597433495571818E-12
 -3.5118720576735478E-12
 7.023797855828383E-12
 1.3327647880004313E-11
 -1.153230012380077E-11
 4.925575002508149E-13
 -7.527242561757548E-12
 -3.6191132922464104E-11
 1.3531152987981876E-10
 -4.635730611851843E-11
 6.201292641594086E-12
 3.3306693191880476E-11
 6.251494616544698E-12
 2.2199957044057096E-11
 1.2606008306387555E-11
 2.8051880865474234E-11
 -3.1324241950528855E-11
 2.791443711524177E-11
 2.0104737695471925E-11
 8.511110026640314E-11
 1.203972812715045E-11
 -3.01542622003635E-11
 2.6697241286486217E-11
 1.5822906432359445E-11
 -3.477988526144362E-11
 5.944059186715314E-11
 1.0292347778582944E-10
 5.093476621350421E-11
 2.8774356181371332E-11
 -4.910192900427822E-11
 -4.543489715430225E-11
 -1.1735568861351163E-11
 -1.3992925088845218E-11
 -9.24281003298324E-11
 -7.233000874661498E-11
 -2.949022853361501E-11
 1.403732880502419E-10
 6.020623435845535E-12
 -6.967033225038689E-11
 -2.427392066716747E-10
 -3.6409979243594817E-10
 -2.58953258689312E-10
 -1.305836130995706E-10
 3.914392533029491E-11
 3.551585996835915E-13
 3.53826741326475E-10
 1.1360376381796616E-10
 -7.670331911039721E-10
 -1.934028949863821E-10
 2.8204935340097308E-11
 7.588658587059203E-10
 -2.633439938886495E-10
 3.3644300038947805E-10
 -2.4665386754890874E-10
 -1.142217990411861E-9
 -3.4470361629281483E-10
 -1.3939876570461375E-10
 -5.2071689965380366E-11
 2.2264166892500837E-10
 1.1330433080610155E-11
 7.925516279263934E-13
 -3.70423090535495E-12
 -7.925628329409884E-13
 3.4864460523223396E-12
 1.055875638538547E-10
 9.121188635959138E-12
 1.2436509938022778E-11
 1.429355542739979E-11
 -7.204576554034271E-11
 7.899106067800167E-12
 -1.3198406394391407E-11
 9.53280229044865E-11
 2.8746553916984366E-11
 -9.149511369589383E-12
 1.1992258065137852E-10
 -1.0178990610481746E-10
 -2.643850351664072E-10
 -8.278149167900639E-11
 -1.2278107889562777E-10
 6.249209293288834E-10
 1.3031121240412215E-10
 -8.373916627023397E-10
 -8.884493587836111E-11
 4.9229407158597246E-11
 8.640107299186911E-12
 -4.320041246331997E-12
 2.253766342074285E-13
 1.9910025971772257E-12
 -2.147306878559906E-12
 1.5631186661288143E-13
 -2.2538219955061954E-13
 2.5453078581516663E-14
 -5.0905748195399145E-14
 1.6134932282730182E-11
 -1.5012648179632268E-12
 4.742745976899025E-12
 3.013804449078881E-12
 -5.381029988929862E-11
 6.495436275397493E-11
 -6.7453792012264245E-12
 9.321673534940232E-12
 1.9813879891909897E-11
 1.88520995282968E-11
 1.086746448131098E-11
 1.3382033796404806E-11
 -9.747697811991982E-12
 -1.187358664310364E-10
 3.515283519975521E-11
 3.8231976426687215E-11
 6.509380788748194E-11
 2.1426533517059553E-11
 -1.1863913817727594E-11
 -3.5808142472820125E-11
 8.525884934334309E-11
 1.2629702918706322E-11
 4.5128630789833454E-11
 9.480772564717065E-11
 2.5099951224307426E-11
 2.1835309705310993E-11
 5.610359135598177E-12
 1.583356648066874E-11
 1.4479030997561656E-12
 -2.4827738053972875E-11
 -2.084225272607403E-11
 -2.338181778329701E-11
 -8.400723111453647E-11
 1.0687652106451373E-10
 -6.215866774809847E-11
 -1.3194468936888877E-10
 -1.5657547930231533E-10
 -1.8077722285758478E-10
 -1.7035658063090457E-10
 -5.105025821285942E-11
 1.7807425742951998E-11
 -2.3121200060614225E-10
 2.411680699185205E-10
 -1.1710300345690675E-10
 -3.8239957410851495E-10
 -8.746985628663636E-11
 -1.8508431527236058E-10
 5.007638782664108E-10
 -1.7145298882445286E-10
 -6.292776961003892E-11
 -1.8977239433254804E-10
 -5.543558922946002E-10
 -2.542070277409016E-10
 -6.925173054931358E-11
 -4.769864858110077E-11
 -1.0101135259328638E-10
 6.588116089663941E-12
 -1.470679415354048E-12
 -3.4871823785656103E-13
 1.470678831071628E-12
 -5.193247767675123E-12
 -2.762951257546046E-11
 1.928820003325449E-11
 2.8438328868623258E-11
 9.096525021339139E-12
 -6.450084971001992E-11
 -1.0013106360441302E-10
 4.2659436597851905E-11
 1.1163878457220101E-10
 3.7396695880542144E-11
 -1.394423445740022E-10
 2.5545986807921917E-11
 -2.2613227538723667E-10
 -9.504788778010837E-11
 1.8553228680484285E-11
 -2.746015862253722E-11
 2.0920480479287145E-10
 -1.4171181717065708E-10
 -3.6565770409509736E-10
 -5.840799902128313E-11
 -1.2829120117066002E-10
 4.536124814105426E-12
 -2.2680546310053673E-12
 -3.1667353662524435E-12
 3.5090856234886815E-12
 1.4498700984641845E-12
 -4.9589610956616044E-12
 3.1667402197191308E-12
 5.167753966164356E-12
 -1.0335590233434305E-11
 -1.3497784923198034E-11
 2.281003250717262E-11
 3.549236482024784E-12
 2.233609890369522E-12
 3.414348207285031E-11
 -1.0204582010905829E-10
 2.961026454839421E-11
 3.215039830611264E-11
 1.189683058282678E-12
 3.174568873856182E-11
 1.4892745372128664E-11
 5.874658304602693E-12
 1.2010766210005861E-11
 8.560360707948198E-12
 2.67000154211636E-12
 9.124689221253118E-11
 5.0228268818044E-11
 1.746540798325519E-11
 -7.885108372185527E-11
 -1.8561742263550782E-10
 5.7265740087891174E-11
 7.508901604826119E-11
 2.4891454235310486E-11
 1.334095977161497E-10
 3.985318165562939E-12
 4.892610983836066E-11
 9.591035961303259E-11
 -2.9821042541811403E-10
 -8.114130607930146E-11
 -2.8780158494349963E-11
 5.4153327561226604E-11
 -4.4846001841097124E-12
 -6.522379725197382E-12
 -6.083019767212874E-11
 -7.483658362375101E-11
 -3.244576441890949E-10
 -7.675305217180465E-11
 -1.1174235754451667E-11
 -5.789178005200459E-11
 7.723977249112362E-11
 -7.66645527043921E-12
 1.4359561549636478E-10
 -1.247200962826329E-10
 -2.1869539276155601E-10
 -7.278060172796973E-11
 -1.7671244003544798E-11
 2.581150129591606E-11
 -1.3532785575174385E-11
 -1.0444119208695428E-10
 -2.1807974261372043E-10
 -2.840449776824415E-10
 -1.9292317149285033E-10
 -1.4015734169318975E-10
 -4.290321180697331E-11
 9.910509668528453E-11
 -1.3930571341033725E-10
strain 2
Perm: use previous
 0.010000008025644276
 0.010000008348137836
 0.010000008349878364
 0.010000008525342895
 0.010000008515974077
 0.010000008757178935
 0.01000000886171613
 0.010000009177305081
 0.010000009136410495
 0.010000007471140484
 0.010000007738446661
 0.010000008045885848
 0.010000008384168601
 0.010000008530346355
 0.010000003671100642
 0.01000000362632732
 0.010000003712593703
 0.010000003773323706
 0.010000003916808463
 0.010000004009606408
 0.010000004178003067
 0.010000004203360911
 0.010000004231004722
 0.01000000163023637
 0.010000001581848947
 0.010000001671267853
 0.010000001733623228
 0.010000001836934122
 0.009999999028777695
 0.00999999885748279
 0.009999998833401903
 0.009999998831398916
 0.00999999884651974
 0.009999998815226287
 0.009999998767288482
 0.009999998720108582
 0.009999998725031437
 0.009999996954217225
 0.009999996800846412
 0.009999996714349268
 0.009999996501190378
 0.009999996429265478
 0.009999996436765992
 0.009999996452203907
 0.009999996337892971
 0.009999996368336405
 0.009999996260622724
 0.009999996212123533
 0.009999996039163335
 0.009999996041450125
 0.009999995983766928
 0.009999995368025478
 0.00999999546635469
 0.009999995175105848
 0.009999994975224778
 0.009999994905029836
 0.00999999556821566
 0.00999999567256521
 0.009999995753946892
 0.009999995549072663
 0.009999995540000611
 0.009999995369577979
 0.009999995313651781
 0.00999999521958916
 0.009999995150561191
 0.010000003838112706
 0.010000004081854011
 0.010000004215592979
 0.010000004375541261
 0.01000000461878635
 0.010000001829025183
 0.010000001878297757
 0.010000001978316898
 0.010000002126043218
 0.010000002187604076
 0.00999999964768843
 0.009999999451369685
 0.009999999401630145
 0.009999999390910888
 0.009999999426614632
 0.00999999821007011
 0.009999998192783728
 0.009999998142204976
 0.009999998013855618
 0.009999997963951766
 0.009999997643612767
 0.00999999793008582
 0.009999997892918607
 0.00999999772202793
 0.00999999744899887
 0.009999999840904149
 0.009999999976417604
 0.010000000004264918
 0.010000000064014908
 0.010000000066242276
 0.010000000051944138
 0.010000000087938438
 0.01000000017730585
 0.01000000031006869
 0.009999999725827474
 0.009999999866093956
 0.009999999927872982
 0.01000000000074531
 0.010000000098694561
 0.009999999947605568
 0.009999999966919292
 0.009999999977223194
 0.010000000004241432
 0.010000000006652895
 0.009999999998249721
 0.010000000016975152
 0.010000000029970155
 0.010000000105296229
 0.01000000006957096
 0.009999999959609956
 0.009999999942310402
 0.010000000000011213
 0.01000000009139161
 0.010000000227453574
 0.01000000013094406
 0.010000000007113497
 0.010000000015259906
 0.009999999963445874
 0.009999999966501902
 0.00999999994342689
 0.00999999999307275
 0.01000000006847657
 0.010000000086660896
 0.010000000005753672
 0.009999999993490586
 0.009999999976851734
 0.009999999983023037
 0.009999999934662503
 0.009999999971506454
 0.010000000023414012
 0.010000000013850211
 0.010000000054373185
 0.009999999957472744
 0.009999999901804196
 0.0099999998714151
 0.009999999939759668
 0.00999999980884312
 0.00999999998275988
 0.010000000130088274
 0.009999999967970036
 0.009999999842682565
 0.009999999780689458
 0.009999999862842324
 0.009999999966617976
 0.010000000153518599
 0.010000000314115982
 0.010000000134871904
 0.009999999932110702
 0.009999999801783193
 0.009999999815281074
 0.00999999571870798
 0.009999995755610112
 0.009999995784544032
 0.009999995789558734
 0.009999995905143742
 0.009999998104774921
 0.009999998059067445
 0.009999997971863997
 0.009999997917195356
 0.009999997983891009
 0.010000000979549286
 0.010000000640325557
 0.010000000531023458
 0.010000000614312726
 0.010000000713130931
 0.010000001772887096
 0.010000001864277502
 0.010000001918151164
 0.010000001901801087
 0.010000001883079602
 0.010000001765573537
 0.010000001969540052
 0.01000000247973207
 0.010000002199867408
 0.010000001997047822
 0.009999991490973883
 0.009999991318152778
 0.009999991339880355
 0.009999991233729352
 0.00999999129454933
 0.009999991154215312
 0.009999991259692911
 0.009999991145495381
 0.009999991448299923
 0.009999992112162613
 0.009999992199537686
 0.009999991982262072
 0.009999991669532207
 0.009999991692590379
 0.009999996188775711
 0.009999996078279913
 0.009999996011403363
 0.009999995956136716
 0.009999995848594376
 0.009999995782353954
 0.00999999565402176
 0.009999995746234313
 0.009999995872484435
 0.009999998772223326
 0.009999998650990487
 0.009999998452528379
 0.009999998433387674
 0.00999999846535075
 0.010000001837299871
 0.010000001250618598
 0.010000001374391583
 0.010000001010282665
 0.010000001288651026
 0.010000001028518574
 0.010000001329466579
 0.010000001231129735
 0.010000001602163777
 0.01000000334545733
 0.010000003366016036
 0.010000003366267721
 0.010000003506805926
 0.010000003614022361
 0.010000003550436294
 0.010000003458444488
 0.010000003643707277
 0.010000003644870402
 0.010000003785639032
 0.010000003706294374
 0.010000003747394725
 0.01000000374312991
 0.010000003898968232
 0.010000004363296306
 0.010000004582770484
 0.01000000513336465
 0.010000004944647312
 0.010000004743805198
 0.010000003883313189
 0.010000003716027887
 0.010000003726186221
 0.010000004357942556
 0.010000004680375185
 0.010000004684211899
 0.010000004232109309
 0.010000004272452687
 0.010000004365171587
strain 3
Perm: use previous
 8.7901737891513E-12
 2.5605856391652087E-12
 -3.669002741218891E-12
 -9.330495207222962E-12
 -1.4991987812607543E-11
 -2.3885004138076073E-11
 -3.2778020512714974E-11
 -1.221259460539005E-11
 8.352831325971966E-12
 4.338417366507849E-11
 2.831001626649246E-11
 1.461804474540021E-11
 -1.2569799724642147E-11
 -6.049274866059556E-11
 -5.4198695909724074E-11
 -6.936941583285223E-12
 -9.143504673740522E-11
 -6.841639163460438E-12
 -9.557193717344949E-11
 1.158644836077147E-11
 -1.4722158651537285E-10
 2.068767921399912E-11
 -1.3294352705065795E-10
 5.2134495222867E-12
 1.013240409051195E-11
 -9.409471564966374E-12
 -3.740157438980209E-12
 -6.89053143988611E-11
 -2.3972974745097655E-12
 -1.4573667514053316E-11
 2.3058319076989788E-11
 -4.702371774306519E-11
 -6.758203071455654E-12
 -9.887236638223805E-11
 -1.0783445000904883E-10
 -1.0285227406569118E-10
 -7.644636584583443E-11
 -3.4790855175121734E-12
 -2.005052818755507E-11
 4.550082860073856E-12
 -9.287305394594357E-12
 -8.219613920371081E-11
 2.200802964059039E-11
 -4.5016343863441625E-11
 -1.5442903907994106E-10
 -2.537704227044892E-11
 -1.0851931164984545E-10
 -9.112181277822175E-11
 -2.321947022533737E-10
 -3.9104195840513165E-11
 -1.6667469713673525E-10
 1.8014997723561004E-10
 2.679281051683588E-10
 2.5171755812835195E-11
 7.442720083286243E-13
 -5.826813855396404E-11
 2.977772652659527E-10
 -9.586638633092133E-12
 3.060197942153754E-10
 -3.6833555827110227E-10
 -2.1409824970198825E-10
 -9.418528140257294E-11
 -9.921620619303769E-11
 4.4809276147905846E-11
 8.330795009968885E-11
 -4.39508687149688E-12
 1.8345013223908032E-12
 7.495993901116334E-12
 1.6389010219823566E-11
 -4.176415646898804E-12
 -1.1526514341263783E-10
 -1.0205933649460616E-10
 -1.396094506219853E-10
 -2.3454545241686823E-10
 -2.1791328342375257E-10
 5.449252183497409E-11
 4.655448468434889E-11
 7.999009415145769E-11
 -7.156477650172825E-11
 -5.827470851633117E-11
 -9.180650876282587E-11
 -1.174357475807012E-10
 -1.1149688449736697E-10
 -2.794047505393464E-10
 -1.5537489980319668E-10
 -1.9602281961525093E-10
 -4.402575632270847E-11
 -1.2165275801978894E-10
 -4.863245229062392E-10
 -3.8050831114098443E-10
 2.1002101893466158E-19
 -8.919004090152487E-20
 5.865195189756834E-20
 -5.955283869546244E-20
 7.3765992799536E-21
 5.463846393459806E-20
 1.563598351913645E-19
 1.1862785385278756E-19
 5.180329777482995E-20
 5.056273063379701E-11
 4.347012213408329E-11
 -5.326971737194941E-12
 -8.197698422571795E-11
 -7.983840593890461E-11
 -1.1205677941932459E-10
 -6.944298349455223E-11
 -1.0536188847255495E-10
 -6.461675585398166E-11
 -1.3349092424682766E-10
 -4.7659669932305526E-11
 -2.3336854643883986E-10
 -5.0385765313009924E-11
 -2.458002007470106E-10
 1.1450448771321885E-10
 1.2814540977416583E-10
 8.969686459839998E-11
 5.1164135754845636E-11
 -2.7784865787540076E-11
 1.0479820681782333E-10
 -7.468505408199648E-11
 1.1447987460730894E-10
 -7.578352610138833E-11
 1.3774088428899902E-10
 -7.54079336930678E-11
 -2.2829022965529298E-11
 -7.963585609044226E-11
 -2.719392534062853E-11
 4.247727915770057E-11
 -9.197836945414772E-13
 -4.662508813118325E-12
 -3.995823754899467E-11
 -1.5800205840994133E-11
 -1.9106490622757906E-10
 1.719521332597266E-11
 -1.5880107090829782E-10
 1.349868647479937E-10
 -8.5412402281348E-11
 -4.56712218513017E-11
 -2.706371597378926E-10
 -8.998714235154015E-11
 -1.029090120729428E-10
 -1.3016512021115226E-11
 6.470281889390581E-11
 3.1629970551828065E-11
 -2.129723526643349E-10
 -2.3069255343475856E-10
 -4.285769023964407E-10
 -2.5078888048255405E-10
 -7.620740848950079E-11
 -5.154083072389285E-10
 -9.8151286257861E-11
 -1.964113142687477E-10
 -5.927477946556682E-10
 -1.7734908354546756E-10
 -6.013814657457128E-10
 4.395086769476856E-12
 -1.834501294553343E-12
 -7.4959939380567E-12
 -1.638901019469429E-11
 4.176415565726112E-12
 -9.691275950927184E-11
 -6.957515109409636E-11
 -1.3120570606984358E-10
 -2.0709891311334698E-10
 -2.416864753316974E-10
 1.7401794821891944E-10
 1.5998755864263456E-10
 1.9424984560894347E-10
 2.4184779232946197E-11
 -1.1357094126571505E-11
 -3.2350013392966453E-10
 -1.7016557041616202E-10
 -7.836131181555705E-11
 -2.027671080793682E-10
 -4.92922709500236E-11
 -6.37904984207129E-10
 -2.114887625104555E-11
 -8.011457780506084E-11
 -6.527948087811634E-10
 -7.343765434172653E-10
 -8.790174539229874E-12
 -2.560585541414665E-12
 3.669002719771385E-12
 9.330495262774134E-12
 1.4991987498916072E-11
 2.3885004211206306E-11
 3.2778020614642444E-11
 1.2212594742794507E-11
 -8.352831820903158E-12
 6.967694351485679E-11
 9.771951701944867E-11
 -2.910529654990097E-11
 -1.262914411900148E-10
 -6.71834204672465E-11
 -1.4604355062220323E-10
 -8.092407982635443E-11
 -4.1110151158488604E-11
 -8.71358913532093E-11
 -1.79076527572807E-10
 -8.564636888186636E-11
 -2.6933005088327747E-10
 -6.436583956002026E-11
 -2.94655589122427E-10
 2.5464523816700016E-10
 2.6282999835674126E-10
 1.8372806282767129E-10
 1.2943920496339531E-10
 3.009227315959729E-11
 2.498218235517681E-10
 -1.383000895781958E-10
 1.6106601800308443E-10
 -1.2820286882985123E-10
 2.797563133338404E-10
 -5.490728086980458E-11
 5.873250115489987E-11
 -7.338534117100488E-11
 -8.429389287048457E-12
 7.417087010269176E-11
 2.579407871043948E-11
 -3.415032152483989E-11
 -1.3248659975304923E-11
 3.6502628737873426E-11
 -4.704915021578067E-10
 7.62307643409092E-11
 -1.0317145467121097E-10
 3.0631820440983336E-10
 -1.0037227560256534E-10
 3.984843856422132E-11
 -1.9087469517689434E-10
 -8.061677464574288E-11
 -3.684161991002249E-11
 -2.1613383023785983E-10
 -2.128145940640878E-11
 1.3590030695943942E-11
 -3.2121025894382823E-10
 -3.1408803765562374E-10
 -1.1084790678887973E-9
 -3.815249372156201E-10
 -2.8395424344831973E-10
 -5.807056349182234E-10
 6.866151752781393E-12
 -2.5772585241305704E-10
 -9.93526868670167E-10
 -2.652531086636616E-10
 -1.1103147276675559E-9
strain 4
Perm: use previous
 1.4485999056085972E-11
 -2.7152554067762218E-11
 -1.1308364997893166E-10
 -7.812964746787393E-11
 -7.612293863790226E-11
 -8.139353935604567E-11
 -9.376563484415939E-11
 -1.0592017276838705E-10
 -1.5227528051583604E-10
 1.0041774221982138E-10
 -2.8374597144762936E-11
 -3.016887728656776E-11
 2.8357187451820307E-11
 -5.94314888321766E-11
 2.3026168604826342E-10
 1.1963245863754094E-11
 -6.004686574236546E-12
 1.231702724627703E-11
 6.589358641467248E-11
 8.901201477055569E-11
 1.0821661829340502E-10
 1.0419368313623807E-10
 -1.2409771317166325E-10
 1.4170665679892133E-10
 9.07326867913337E-11
 9.253923099964174E-11
 1.8353020688670095E-10
 2.2307811266866817E-11
 6.383777421028853E-11
 2.0126536260425295E-10
 2.3336653526914933E-10
 1.834790831596555E-10
 1.702740085099461E-10
 1.2591062817453284E-10
 1.2207011591986886E-10
 1.0779056900790782E-10
 8.994510824347949E-11
 1.1963873814691022E-10
 3.1178634536233196E-10
 1.5085986103806137E-10
 1.1138057354242013E-11
 4.407397679433898E-11
 1.5355106477312128E-10
 2.0340688925255138E-10
 3.416557862004245E-10
 3.156837346868859E-10
 8.669818212076994E-11
 -3.568751036845789E-11
 -1.1415418711809706E-10
 -8.59459808572482E-11
 -8.78006090236287E-11
 8.462675238327937E-11
 1.5711859242363405E-10
 1.0314731074719377E-10
 -1.1831736247611056E-10
 -9.070785986174738E-11
 -3.379120276634641E-11
 5.6761695833699864E-11
 1.8194850590826673E-11
 2.84512054732646E-10
 1.2634707190527792E-11
 -5.1544408047678344E-11
 1.2147408503225009E-10
 1.5373384576003152E-10
 2.3027486747749468E-10
 -2.555932751810609E-11
 -1.0431625656851736E-10
 -7.670944715000106E-11
 -9.320065866738535E-11
 -1.2344565915753268E-10
 1.2296259620945398E-10
 -5.324368977394378E-11
 -4.362609452803081E-12
 2.547432932320225E-11
 -9.303258457713102E-11
 -9.139374225972941E-13
 8.56018287241341E-11
 5.195442894980585E-11
 3.813818270471301E-11
 5.309814829819694E-11
 1.1123018871346454E-10
 2.2561035436238948E-10
 4.340687364827695E-11
 -7.266676840711139E-11
 -7.68769162834076E-11
 -3.3684152199153975E-11
 3.309902735815895E-11
 2.0411027286820795E-11
 1.02482802555133E-10
 1.6593976844467807E-10
 -5.93586894740261E-11
 -6.806645178121365E-11
 -9.353614736899715E-11
 -7.623366035477142E-11
 -7.897238352252142E-11
 -8.3556872040146E-11
 -9.650746219419E-11
 -7.613132542296305E-11
 -1.0083393368617034E-10
 -9.696191258991464E-12
 -9.150418026417501E-11
 -8.79355412682833E-11
 -5.259879259158777E-11
 -7.124802214976452E-11
 1.4204648634080656E-11
 -7.075081118418752E-11
 -1.0745897249123969E-10
 -1.0065132444919702E-10
 -7.374599978551996E-11
 -6.517749410090051E-11
 -4.859503101381205E-11
 -2.1388561836602186E-11
 -4.736895061129031E-11
 -2.7592127912202577E-11
 -1.0024244948827881E-10
 -9.620807620108386E-11
 -2.506368287835269E-11
 4.723580157395771E-13
 -5.4098231375431695E-11
 -3.668075024619032E-11
 -5.7088580859822925E-11
 -6.337555373038402E-11
 -6.732812180516145E-11
 -5.6723905932353E-11
 -4.732495942028678E-11
 -3.392652750627469E-11
 2.374260803847552E-11
 -9.11289060287818E-12
 4.1573679990632745E-11
 -1.5266911383375844E-11
 -2.9537330515168117E-11
 2.1564162924579384E-11
 7.942437959154202E-11
 1.0116626068654259E-10
 1.2174959430882047E-10
 9.508081523592138E-11
 2.9524055420171422E-12
 -3.303156467320113E-11
 -4.294702201896448E-11
 -2.9228010685802147E-11
 -7.320465447862918E-11
 5.1223072504222174E-11
 7.722898587802924E-11
 5.421773141761365E-11
 -4.293546469505392E-11
 -4.480120112071615E-11
 -3.330637232585984E-11
 5.655769173785831E-11
 4.9394451038364386E-11
 1.3509501259308568E-10
 4.262533322223301E-11
 1.7268113454142575E-12
 8.106720658120539E-11
 7.06851226084037E-11
 9.797577997117441E-11
 -1.0042621529765394E-10
 -7.729953586588882E-11
 -6.944725736905895E-11
 -1.0632789502571614E-10
 -7.260618700398535E-11
 -3.115438610812441E-11
 -1.5770416857997775E-10
 -1.5114427257254207E-10
 -1.4979186780251332E-10
 -3.0550282540632086E-11
 -7.669398033221405E-11
 -1.962673370442234E-10
 -1.6067184520372629E-10
 -1.4716905380968418E-10
 -9.468923378676037E-11
 -3.075302707526834E-11
 -1.0261907319324402E-11
 -6.800019342847294E-11
 3.674176446757896E-11
 7.495591006718213E-11
 1.7015755816045314E-10
 2.3068813858542855E-10
 -3.231778805038201E-11
 1.8069628265120615E-11
 2.183832888016187E-11
 -1.4296517768979997E-10
 -1.1501490245629303E-10
 -5.098135360475577E-11
 -5.321062731407767E-11
 -5.603941395827817E-11
 -8.936645056763623E-11
 -1.18997707452474E-10
 -9.464319823801315E-11
 -3.756920078332943E-11
 -4.409545480028967E-11
 -1.6270390150656434E-10
 -1.6222325077711102E-10
 -1.2031830798127735E-10
 -3.306990172480892E-11
 -8.546017677847405E-11
 -1.6969128817002866E-10
 -2.1531277896459198E-10
 -1.8883906939136315E-10
 -2.2857057961210752E-10
 -2.153154448238788E-10
 -2.493434801692416E-10
 -1.7024216877678816E-10
 -1.0610315451646342E-11
 -7.049310077960713E-11
 -2.819947603750978E-10
 -3.0034734547303617E-10
 -2.3735883712896094E-10
 -1.0513288215049397E-10
 -1.1559443245800052E-10
 -3.2405248227590305E-10
 -3.4199230688196204E-10
 -3.3362747669278535E-10
 -2.5434883092988673E-10
 -2.4038567140055453E-10
 -2.51988247464707E-10
 -1.6378736065577735E-10
 -2.3114145444940763E-10
 -1.920145975990935E-10
 -1.9737055634735813E-10
 -1.8382879899846208E-10
 -6.223789751718013E-11
 2.3216481250403727E-11
 -1.422643574438033E-10
 5.0284241437467085E-12
 -1.3884872635781077E-10
 -1.419269280290629E-10
 -1.4091055063863785E-10
 -2.880624419269955E-11
 1.218145868406695E-10
 3.18256321055078E-11
 2.346892249819799E-10
 -6.603558978749678E-12
 5.2557052376203896E-11
 -5.048503321103716E-12
 -3.180697909474955E-11
 6.59859738709806E-11
 3.58949290150359E-10
 4.0663376386230984E-10
 4.3024598757896364E-10
 2.3047580405047024E-10
 -1.0172501289559761E-10
 -8.151248142161863E-12
 -3.830673614531468E-11
 2.2716403345698893E-11
 -2.0315385349665565E-11
strain 5
Perm: use previous
 9.485308601970799E-10
 9.99198576948273E-10
 1.022339082572716E-9
 9.790208681042467E-10
 9.375595194212033E-10
 9.157367749424719E-10
 9.12545133943398E-10
 9.309850557506971E-10
 1.0007917360811379E-9
 -6.816596244992616E-11
 -3.4778399051318545E-11
 -3.214063402411152E-11
 -7.251558486347533E-11
 -9.816702604091095E-11
 7.280505284558987E-10
 6.790907492573874E-10
 7.712296043680201E-10
 6.872265613127992E-10
 7.857682873516032E-10
 7.377487168457207E-10
 8.177255202268208E-10
 7.521218303309547E-10
 8.955815293659219E-10
 -3.3254834111606445E-10
 -2.804159683027218E-10
 -2.743144058481518E-10
 -2.883351721853976E-10
 -2.812004747531762E-10
 5.808929648239063E-10
 6.536612488353764E-10
 6.310707671951685E-10
 6.49902663226624E-10
 6.768519298167481E-10
 6.574880558638667E-10
 7.299500195110374E-10
 6.668413794756511E-10
 7.808896436994584E-10
 -2.2794550229737308E-10
 -1.7292448572257254E-10
 -1.5869237954201308E-10
 -1.5758435911497333E-10
 -1.489024378486287E-10
 2.5056337432390946E-10
 3.4434723944723884E-10
 3.147093374633947E-10
 3.468628549460389E-10
 3.747715799153826E-10
 3.9608597040807695E-10
 3.7908918220908297E-10
 3.823977531553205E-10
 2.995231137369474E-10
 -1.1894073787778373E-10
 -1.3245239548756728E-10
 -9.926218635025199E-11
 -1.1906599580304457E-10
 -9.464688246407907E-11
 1.0302242904230597E-10
 1.9718917548206997E-10
 1.105712409993751E-10
 3.4482743126558087E-10
 3.3148978647139806E-10
 3.0819186820272487E-10
 1.252844939628143E-10
 9.846821708332342E-11
 -3.783707078024958E-12
 9.80552009460538E-10
 1.0530177480245112E-9
 9.495787204017027E-10
 8.999892560463899E-10
 9.800507562260859E-10
 1.1906368519708126E-9
 1.217705743109483E-9
 1.210844538661877E-9
 1.306523777760714E-9
 1.4736576244496026E-9
 6.563678027203828E-10
 7.694768686684224E-10
 8.057392398207273E-10
 8.544658591241809E-10
 9.603613111692721E-10
 3.043370522929932E-10
 4.1528206357863584E-10
 4.77882696783997E-10
 4.574902706587258E-10
 3.776471859322284E-10
 4.580368886200194E-11
 3.063856148167337E-11
 2.4050500011591513E-10
 2.2714078007891794E-11
 -2.0944752025812753E-11
 9.996204520459748E-10
 1.069078169206126E-9
 1.0752628237459124E-9
 1.0431587510754896E-9
 9.63516406159319E-10
 9.659221290559014E-10
 9.165001565046371E-10
 9.605658298471486E-10
 9.71780546264358E-10
 2.8338024584057154E-10
 3.306165925806324E-10
 3.409977104297422E-10
 3.410184864173496E-10
 3.7871377382414037E-10
 1.5412106818534167E-9
 1.5536696374496342E-9
 1.6047461578285952E-9
 1.5394941254710013E-9
 1.61653306407406E-9
 1.5917618234383273E-9
 1.7299924999784746E-9
 1.702020453648733E-9
 1.9145362391045676E-9
 1.0085244100688032E-10
 2.2026811128343052E-10
 2.2068835113541347E-10
 2.4143484082731205E-10
 3.8348479927054006E-10
 7.408472810237628E-10
 9.154630306279112E-10
 9.155369537643853E-10
 9.898753760618812E-10
 9.285922464702719E-10
 1.0015677763850498E-9
 9.810085996496134E-10
 1.05092435646579E-9
 1.1415814314626318E-9
 -8.279157989795993E-11
 2.5984859386879624E-11
 7.366853726510224E-11
 6.070717232210534E-11
 1.0822693123973094E-10
 3.2201487745853294E-10
 3.925219626605802E-10
 4.898935321676878E-10
 4.74955048051551E-10
 5.881675397776849E-10
 4.825662116183014E-10
 5.334051569721724E-10
 4.432774089895742E-10
 4.195398648051782E-10
 -4.6312704698240975E-11
 5.003956500485851E-12
 4.272598940784441E-11
 1.4085791805225104E-12
 -3.113259307471875E-11
 8.290415188693751E-12
 2.419627662514443E-11
 -1.2563353127746546E-11
 9.272755817944563E-11
 2.0357052852076411E-10
 1.423145575814522E-10
 -6.125979712143483E-11
 -1.5002389378323825E-11
 -4.3988856890214225E-11
 1.044734361285266E-9
 1.107073992099318E-9
 9.757857485061568E-10
 9.159642706406497E-10
 9.850174108648473E-10
 1.1529967710511213E-9
 1.2144296163060232E-9
 1.237159368727437E-9
 1.339014419480915E-9
 1.4633652194282334E-9
 6.806683977924053E-10
 7.488999193190017E-10
 7.450883683834549E-10
 7.951785587625168E-10
 9.214063948757104E-10
 2.922479521622948E-10
 4.614158693971392E-10
 5.07506602903338E-10
 4.893176394279391E-10
 4.0861804943187517E-10
 -1.8555863233193617E-10
 -1.2722337446531106E-11
 2.0726373253089868E-10
 -1.7979753979017363E-10
 -1.81792154678723E-10
 1.0970494640553923E-9
 1.1774188831205567E-9
 1.1553074986986898E-9
 1.1164892331223425E-9
 9.805091081968213E-10
 9.97584928606162E-10
 8.797433864395678E-10
 9.988279212703019E-10
 9.821778890732725E-10
 -1.2824350432762845E-10
 -1.0044693153768475E-10
 -8.263426328450791E-11
 -7.338212949085118E-11
 -5.989812578282205E-11
 8.799831560977608E-10
 8.921475149058035E-10
 8.793079970355016E-10
 8.094362526707399E-10
 8.80280961644377E-10
 8.375666562508156E-10
 1.0147771571453127E-9
 9.44920627478132E-10
 1.1501939433113331E-9
 -3.638340415949825E-10
 -3.6664209758552766E-10
 -3.5792103078475227E-10
 -3.554871008210151E-10
 -2.425454978330855E-10
 6.13363908788122E-10
 7.328902259094953E-10
 5.794955027512634E-10
 7.272596090168428E-10
 5.677714979249131E-10
 7.307502329211837E-10
 6.101696810584164E-10
 7.110118796311216E-10
 7.022075177451229E-10
 -1.6730671510729955E-10
 -1.6912587863754625E-10
 -1.7294173780193187E-10
 -1.5534205247293894E-10
 -9.720566506224492E-11
 2.8802792638399434E-10
 3.227075585969862E-10
 4.5393406324923606E-10
 3.246664478932378E-10
 4.1912444466061353E-10
 2.6935935458409536E-10
 4.373266505708659E-10
 3.484704292785824E-10
 4.2643376786710046E-10
 -4.470486790670828E-11
 3.501073493325665E-11
 -2.0162062759541064E-11
 -5.950156040101665E-11
 -9.90692037583387E-11
 -4.2296180668061297E-10
 -2.7909522949848887E-10
 -1.0476616494379263E-10
 -1.5561464905476872E-10
 1.6960324392896822E-10
 -2.5335536861011125E-11
 -3.486406095037631E-10
 -1.9122121948851038E-10
 -3.41080963658656E-10
strain 6
Perm: use previous
 -1.2213093479240608E-11
 5.348186368882951E-12
 -4.654435521206563E-12
 2.618255256116408E-12
 8.745736924121377E-12
 -5.0796906963877985E-12
 2.151630245632966E-12
 1.773004510714202E-12
 -1.0864471986939847E-11
 -2.298877757768037E-11
 -8.360429559199408E-12
 -1.0947192307681557E-11
 3.862639389421918E-12
 6.921179519860677E-11
 2.0146551351205694E-11
 -9.372816234745222E-12
 -1.5056730039076626E-11
 -2.980358571159756E-11
 -2.4658046067990083E-12
 1.0987643693892109E-11
 -1.8495096589040618E-12
 6.086920552854097E-12
 2.35639261928423E-11
 -1.6082351224568483E-11
 1.1688958783810192E-11
 -7.656819889010961E-12
 5.082825308178317E-11
 1.1483289248797288E-10
 1.0369804087938549E-11
 2.1844052212516292E-11
 -1.3724276232196742E-11
 2.9304685493670316E-11
 3.361463607871386E-11
 -3.6641602092552044E-12
 3.4514504100249406E-11
 -5.96082385242609E-11
 2.3950897268965178E-11
 -2.0044883394570423E-11
 -1.6211590454650713E-11
 -4.407539939506903E-11
 1.478194089739413E-10
 2.3628449103635456E-10
 -7.800160817366857E-11
 -5.285857785524814E-11
 -5.1431471201615425E-11
 -2.0110123501820168E-11
 -5.2068005908564226E-12
 1.0569204524619016E-10
 1.189244920375633E-10
 1.2798151726088788E-10
 1.2290286335080256E-10
 1.105411008659349E-10
 1.7923254206684058E-10
 -5.44797752613669E-11
 1.5877092319800158E-10
 2.49566338170444E-10
 2.356419146052149E-10
 -1.7175614757123546E-10
 2.3841852508979866E-10
 -3.1459806654844917E-10
 -7.908752966693702E-11
 1.9303094944849852E-10
 1.3647520211438614E-10
 2.406800095167766E-10
 1.285732671158249E-10
 -1.1260660769299494E-11
 -4.863748220644027E-12
 3.0082982022113415E-12
 6.115167583633927E-12
 -6.725134779817955E-12
 9.051700600022602E-11
 -1.492125923768008E-11
 -5.163707228426952E-12
 -7.963041277777955E-12
 -5.697394510091752E-11
 -1.6284860686974383E-11
 -9.940611519466557E-11
 1.1010730886654592E-11
 4.349051845378987E-11
 -3.698986593850596E-13
 4.434573038366689E-11
 8.384651859690026E-11
 1.1007906420249145E-11
 8.330216009089997E-12
 -1.5530834253800697E-11
 3.166930126899617E-10
 2.8437683974014275E-10
 2.353021032286824E-11
 -1.2124338387225339E-11
 -1.0316699763058357E-10
 -1.1902881061737959E-11
 5.9514257671057455E-12
 -4.917139667151902E-12
 7.121217449374966E-13
 4.806587240579215E-12
 -5.518726431979106E-12
 4.917150176924393E-12
 3.661673095313047E-12
 -7.323410404816273E-12
 2.898242696208638E-11
 -8.495794064393823E-12
 -1.0842089791017225E-11
 -8.756476314565578E-12
 -9.196838510834515E-12
 1.333400353052023E-10
 -1.6540021827811517E-11
 -3.104649220387541E-11
 -5.7106865244279544E-11
 -1.6519347654554774E-11
 -6.533392602323037E-12
 -1.3056297724148523E-13
 -8.153612616588185E-13
 -8.489926247118225E-11
 3.2676246340374115E-12
 -3.30126668541832E-11
 -8.95980958747105E-12
 1.695852973701811E-11
 -2.919678688664286E-11
 -2.1056210998770312E-11
 -1.2885278647943666E-11
 -1.3501631155259404E-10
 -2.143760033747248E-11
 -1.417189138685727E-11
 1.3946899391999946E-11
 4.532334746086245E-11
 -1.1555037612744055E-11
 -1.825157254632404E-12
 -1.3802380532725489E-11
 -8.363818650329953E-12
 3.249826710008274E-11
 2.6767594897131024E-11
 6.640629715558257E-11
 9.13012672014765E-11
 3.2574647819770145E-11
 1.4577215051448547E-10
 -8.62212110838896E-12
 6.655241538600674E-12
 -2.576694586614216E-11
 1.545993479795122E-11
 -1.9110345872548756E-11
 4.444941282289743E-11
 1.4020494067199352E-10
 1.9647460514934186E-10
 6.298338442529069E-11
 -2.2852124714014245E-11
 5.634354006049669E-12
 3.888514840298511E-10
 6.576853858896743E-11
 4.070542027472113E-10
 -1.9964423550732175E-12
 5.171476806531845E-11
 3.6586027642333586E-11
 -1.3615296465071876E-10
 -1.6744197507344125E-11
 -1.7113178485007193E-10
 -1.163616261805105E-11
 -5.322214125845188E-12
 7.685527700144436E-12
 4.070820563563424E-12
 -1.3153217759261433E-11
 1.2464416372577243E-10
 -9.549167733412127E-12
 1.633806756285519E-12
 1.1255483412017542E-11
 -7.16431836412538E-11
 -1.0007273547761842E-10
 -1.6379443125483862E-10
 -3.966080588901727E-11
 5.3693504678287706E-11
 3.531965029685818E-11
 2.318571638343274E-10
 1.768245844398165E-10
 -4.052689607641852E-11
 8.287015795815682E-11
 1.1174789087591282E-10
 5.838553997513488E-10
 5.32152750020402E-10
 8.745689999638178E-12
 -9.354998235132494E-11
 -2.869097692875368E-10
 -9.77479116176836E-12
 5.645729097321465E-12
 -5.883209864530734E-12
 -2.1201740011322997E-13
 3.028740121676554E-12
 -9.101066722073722E-12
 8.386046112072278E-12
 1.0781834541996712E-11
 -1.4245412656254176E-11
 3.0727133502391654E-11
 2.5770551597601836E-11
 1.3614899187553471E-11
 -1.4444891303184717E-11
 -2.6619595756984204E-11
 1.5387274754756322E-10
 -7.890246472069954E-12
 2.7506717915190538E-11
 -2.712752210942642E-11
 2.5446512748493583E-11
 -1.4190594658674532E-12
 9.60946141733062E-12
 4.849115390739528E-11
 -1.0874843348152924E-10
 -1.0427864325831824E-10
 -3.65913821008116E-11
 1.6948553437451192E-11
 -4.744668228596231E-12
 -8.811640844077071E-11
 -2.1376322615077955E-10
 -8.668409743039786E-12
 -2.4187892660310375E-10
 -6.697444403220411E-11
 -6.037653270626931E-11
 1.1296709480995321E-11
 6.727759183850585E-11
 2.7409694766048773E-11
 5.011964304611457E-11
 -1.4345350944128689E-11
 -3.844610457764847E-11
 6.369748868666321E-11
 -1.9537199105385834E-11
 -4.0337226667193556E-11
 4.683434852655407E-10
 7.530278316156062E-11
 2.80574567869103E-10
 -6.192706573412117E-11
 -7.234668574518812E-11
 -9.479028427897549E-11
 3.432350325521786E-11
 -9.762375896212498E-11
 -1.5748973169076556E-11
 3.140421474532631E-10
 1.6983434202457193E-10
 7.087857530583558E-11
 2.9524180179140703E-11
 -2.4920981628695977E-10
 7.705931815733054E-10
 3.0901954395667045E-10
 5.982442586860992E-10
 2.8326185094172076E-10
 4.0298731751978247E-11
 -9.711859230211739E-11
 -9.256042039309725E-11
 2.889775040868741E-11
 -5.476516880196892E-10
principal strain 1
Perm: use previous
 0.010000008025644365
 0.010000008348137935
 0.01000000834987847
 0.010000008525342998
 0.01000000851597417
 0.010000008757179015
 0.010000008861716213
 0.01000000917730517
 0.010000009136410594
 0.010000007471140484
 0.01000000773844666
 0.01000000804588585
 0.010000008384168597
 0.010000008530346351
 0.010000003671100703
 0.010000003626327367
 0.010000003712593755
 0.010000003773323746
 0.010000003916808529
 0.010000004009606472
 0.010000004178003138
 0.010000004203360965
 0.0100000042310048
 0.010000001630236382
 0.010000001581848961
 0.010000001671267857
 0.01000000173362324
 0.010000001836934133
 0.009999999028777734
 0.00999999885748284
 0.009999998833401948
 0.00999999883139896
 0.009999998846519791
 0.009999998815226329
 0.009999998767288536
 0.009999998720108632
 0.009999998725031494
 0.00999999695421723
 0.009999996800846421
 0.009999996714349276
 0.00999999650119038
 0.009999996429265487
 0.009999996436766
 0.009999996452203924
 0.009999996337892987
 0.009999996368336424
 0.009999996260622741
 0.00999999621212355
 0.009999996039163352
 0.00999999604145014
 0.009999995983766935
 0.009999995368025478
 0.009999995466354689
 0.009999995175105855
 0.009999994975224781
 0.00999999490502984
 0.009999995568215658
 0.009999995672565215
 0.009999995753946892
 0.009999995549072691
 0.009999995540000625
 0.009999995369577986
 0.009999995313651784
 0.009999995219589166
 0.009999995150561202
 0.010000003838112805
 0.010000004081854124
 0.010000004215593064
 0.010000004375541341
 0.010000004618786454
 0.010000001829025326
 0.01000000187829791
 0.010000001978317047
 0.010000002126043392
 0.010000002187604285
 0.009999999647688478
 0.00999999945136974
 0.009999999401630204
 0.00999999939091096
 0.009999999426614723
 0.009999998210070114
 0.009999998192783749
 0.009999998142205003
 0.009999998013855638
 0.009999997963951785
 0.009999997643612762
 0.009999997930085821
 0.009999997892918612
 0.009999997722027937
 0.009999997448998871
 0.009999999840904257
 0.00999999997641772
 0.010000000004265036
 0.010000000064015012
 0.010000000066242366
 0.010000000051944237
 0.010000000087938514
 0.010000000177305938
 0.01000000031006879
 0.00999999972582748
 0.009999999866093963
 0.009999999927873001
 0.01000000000074532
 0.010000000098694574
 0.009999999947605812
 0.009999999966919538
 0.00999999997722346
 0.010000000004241666
 0.010000000006653161
 0.009999999998249968
 0.010000000016975456
 0.010000000029970446
 0.010000000105296596
 0.010000000069570959
 0.009999999959609963
 0.009999999942310406
 0.010000000000011226
 0.01000000009139162
 0.010000000227453633
 0.010000000130944138
 0.010000000007113576
 0.010000000015260005
 0.009999999963445957
 0.009999999966502002
 0.009999999943426992
 0.009999999993072852
 0.010000000068476702
 0.0100000000866609
 0.010000000005753672
 0.009999999993490591
 0.009999999976851727
 0.009999999983023037
 0.009999999934662522
 0.009999999971506465
 0.010000000023414042
 0.010000000013850239
 0.010000000054373211
 0.009999999957472772
 0.00999999990180422
 0.00999999987141512
 0.009999999939759691
 0.00999999980884312
 0.009999999982759878
 0.010000000130088282
 0.009999999967970038
 0.009999999842682562
 0.00999999978068946
 0.009999999862842326
 0.009999999966617976
 0.010000000153518606
 0.010000000314115987
 0.010000000134871899
 0.009999999932110707
 0.009999999801783196
 0.009999999815281076
 0.009999995718708084
 0.009999995755610228
 0.009999995784544129
 0.009999995789558815
 0.009999995905143841
 0.009999998104775051
 0.0099999980590676
 0.009999997971864159
 0.009999997917195537
 0.009999997983891215
 0.01000000097954934
 0.010000000640325612
 0.010000000531023519
 0.010000000614312794
 0.010000000713131018
 0.0100000017728871
 0.010000001864277519
 0.010000001918151188
 0.010000001901801116
 0.01000000188307962
 0.010000001765573545
 0.010000001969540057
 0.010000002479732074
 0.01000000219986741
 0.010000001997047824
 0.009999991490974006
 0.009999991318152912
 0.009999991339880488
 0.009999991233729476
 0.009999991294549431
 0.009999991154215411
 0.009999991259692994
 0.00999999114549548
 0.009999991448300024
 0.009999992112162613
 0.009999992199537686
 0.00999999198226207
 0.009999991669532209
 0.009999991692590377
 0.009999996188775789
 0.009999996078279994
 0.009999996011403441
 0.009999995956136789
 0.00999999584859446
 0.009999995782354028
 0.009999995654021866
 0.009999995746234409
 0.009999995872484567
 0.009999998772223339
 0.00999999865099051
 0.0099999984525284
 0.009999998433387692
 0.009999998465350761
 0.010000001837299915
 0.010000001250618664
 0.010000001374391627
 0.010000001010282734
 0.010000001288651066
 0.010000001028518632
 0.010000001329466626
 0.01000000123112979
 0.010000001602163825
 0.010000003345457338
 0.010000003366016044
 0.010000003366267734
 0.010000003506805938
 0.010000003614022375
 0.0100000035504363
 0.010000003458444503
 0.010000003643707294
 0.01000000364487042
 0.010000003785639056
 0.010000003706294383
 0.010000003747394747
 0.010000003743129924
 0.010000003898968258
 0.010000004363296303
 0.010000004582770483
 0.01000000513336465
 0.010000004944647301
 0.010000004743805194
 0.010000003883313213
 0.010000003716027914
 0.010000003726186238
 0.010000004357942563
 0.01000000468037519
 0.010000004684211902
 0.010000004232109328
 0.010000004272452696
 0.010000004365171601
principal strain 2
Perm: use previous
 2.3895404420664477E-11
 4.951649748438595E-12
 4.135484083195019E-12
 3.039588249317839E-12
 -1.1858185438520668E-13
 3.710801164038807E-12
 -1.2130771724739826E-12
 -3.164448437377207E-12
 1.8573020487738885E-11
 5.582102530849602E-11
 2.999324009366537E-11
 2.058309325280625E-11
 -5.435839854436858E-12
 2.192835508013432E-11
 1.3742959772493902E-10
 -4.821930405473943E-12
 8.470485987620124E-12
 4.916614872548922E-11
 6.3111725159534095E-12
 2.9095228031063466E-11
 1.262740681515015E-11
 3.148372177757118E-11
 -2.6126042763376366E-11
 3.624833876573623E-11
 2.782658415004407E-11
 8.572733668206397E-11
 5.5586761154897463E-11
 6.692622744158801E-11
 3.001490070957454E-11
 2.723569444711593E-11
 2.614965566210399E-11
 6.697376842979101E-11
 1.1240572794197612E-10
 5.102433382361475E-11
 3.699930174629369E-11
 -1.0590435953396753E-11
 -3.240868254336242E-11
 1.2858240701579898E-11
 -5.296406963034201E-13
 2.158833134448718E-11
 1.1033423213846552E-10
 1.8190634611516246E-10
 1.7910304042718663E-10
 3.919815551450491E-11
 -4.540731613344197E-11
 -2.3532143451995715E-11
 -1.0841329426085998E-10
 -4.0083269948088555E-11
 -5.2066932856720286E-11
 1.3384796433869574E-10
 6.543315433756354E-11
 4.0755947883240773E-10
 3.859025653244808E-10
 2.8900764971416823E-11
 8.976605569744339E-11
 2.382523394767142E-10
 8.579846990593558E-10
 7.707243690314722E-11
 5.60134694951762E-10
 1.293242681938068E-11
 -2.07407240696902E-10
 1.0665967386069576E-11
 1.863866009176391E-11
 2.418750980933389E-10
 2.9920939925936415E-10
 1.7201749448576515E-11
 6.205024177914771E-12
 8.252773995044677E-12
 1.8343148475206492E-11
 7.394959930460327E-12
 1.3794531414664428E-10
 1.1088903380203052E-11
 1.261167511812598E-11
 1.4548118479890568E-11
 -5.2430307045915965E-11
 5.961994200513862E-11
 1.2047674374122157E-10
 1.0107728263289133E-10
 4.4976236969202685E-11
 -9.146726506930419E-12
 1.2883540734089838E-10
 -2.540217780594714E-11
 -1.1070840774309494E-10
 -8.24292020496827E-11
 -1.1656586148341634E-10
 7.328905880961058E-10
 3.4057932927719354E-10
 -1.2088003276721314E-10
 -8.847545054901961E-11
 7.271334089586932E-11
 1.698261508084186E-11
 4.1711934145980544E-12
 5.031052120928641E-12
 2.2194806183602835E-12
 3.851336561424449E-12
 5.5973813711171E-12
 4.805715740046326E-12
 3.674382858234026E-12
 7.297944100646702E-12
 6.705786591698991E-11
 4.50215742176092E-11
 1.1661989182435446E-11
 3.906592277902093E-12
 -5.088862862933856E-11
 1.3648873528095808E-10
 -2.6496002052615994E-12
 1.7186957249357746E-11
 4.861488697981277E-11
 2.062279141877478E-11
 1.1587913704786031E-11
 1.3382102635962597E-11
 -9.73134531074713E-12
 -7.622934313383218E-11
 1.1463881695561914E-10
 1.3896451135520475E-10
 9.2613930558754E-11
 5.884910992016886E-11
 1.0438148355329632E-11
 1.0788367114728738E-10
 8.629025109317714E-11
 2.0785569294371414E-10
 4.881697882714504E-11
 1.4199690757829562E-10
 2.699938516902642E-11
 5.002966283644287E-11
 7.148863070798329E-12
 1.5910847861574234E-11
 4.6688247930278445E-11
 1.7156541713179267E-12
 2.0737668212025968E-11
 -3.648632996252705E-12
 2.4747776536373966E-11
 1.3262900002550865E-10
 2.8854085024730773E-11
 1.0164330978244626E-12
 1.352415944189692E-10
 -8.495022644121313E-11
 -4.05561954739229E-11
 -4.996714962166295E-11
 2.109512594188198E-11
 -8.901460779250964E-11
 3.0331075320795726E-10
 1.9028457141510422E-10
 4.099916845303055E-11
 -8.343833306589601E-11
 -1.8439856887449811E-10
 6.420011117571181E-10
 -1.3431568365080394E-10
 3.3754076346718185E-10
 -1.8976015660649295E-10
 -9.236242682551971E-11
 -1.7868703697627317E-10
 -3.595796676118424E-11
 -4.557107055331369E-11
 -4.808149636299228E-11
 1.7179253538357365E-11
 3.672663632819074E-12
 4.553365421528895E-12
 2.354788007292468E-12
 1.3454133195263547E-11
 6.709732192555602E-11
 2.0302752683434247E-11
 2.845504567780464E-11
 9.680923318143908E-12
 -3.915760081534584E-11
 2.0666072863617892E-10
 2.7530645496861887E-10
 2.1020791532896555E-10
 8.488906703863743E-11
 -2.2633774645403785E-12
 1.4122292950972455E-10
 -1.9123792261756063E-11
 -4.532781664569171E-11
 4.614332235518523E-11
 7.39035651328137E-11
 5.069583570644222E-10
 4.541258153344063E-10
 -7.984696757321471E-11
 -4.40319590053682E-11
 -1.4018553208479505E-11
 9.702731671157011E-12
 3.2332487017068575E-12
 7.054996740505367E-12
 9.338081859460652E-12
 1.56384197250108E-11
 2.651645823195713E-11
 3.498797504983853E-11
 2.0032754101145578E-11
 4.935601096806823E-12
 7.979707785307255E-11
 1.0572881392743786E-10
 8.48096752674671E-12
 3.83706134603453E-12
 4.071103774620867E-11
 3.139264722036331E-11
 3.017064566165901E-11
 4.1328381638412313E-11
 8.855966416717133E-12
 3.477362524101424E-11
 1.4912765542264393E-11
 6.209784031414564E-12
 3.5545535619533745E-11
 4.352997006491452E-11
 2.922024518978247E-10
 2.703075082839745E-10
 1.8584615615884234E-10
 1.2963987930321504E-10
 7.921434283885012E-11
 3.372194374475006E-10
 5.764920071363687E-11
 3.6374681637097813E-10
 5.005485029345519E-11
 3.0144948647370964E-10
 6.07788567078129E-12
 1.2128532576906785E-10
 1.0023750513283033E-10
 -5.760183818089749E-15
 7.548475580040165E-11
 4.565237102488633E-11
 8.750474663229511E-11
 1.1155965301223811E-11
 6.070532555232776E-11
 2.455154566799508E-10
 1.0735468801182902E-10
 8.77878001123258E-11
 3.160804987202523E-10
 2.921564774601621E-11
 9.762486828546956E-11
 8.156405463729438E-11
 6.00737148039399E-11
 1.4495990244957488E-10
 1.469239275735857E-10
 7.644672602628546E-11
 5.340317216651528E-11
 -1.48261966067409E-11
 1.5750466120137453E-10
 3.842668857332907E-10
 9.567151832390656E-11
 3.4813327918758864E-10
 -1.1262671546795841E-10
 1.4688391010970345E-11
 -8.54179883787272E-11
 -3.3974639400629507E-11
 1.0138277883725981E-10
 1.070620327319385E-10
principal strain 3
Perm: use previous
 -1.0845616673913045E-12
 -9.401523944246407E-12
 -6.444865969609044E-12
 -9.884770624736568E-12
 -2.0134649470186118E-11
 -2.4820125156139523E-11
 -3.292477084278599E-11
 -1.256010602083561E-11
 -3.196493782709823E-12
 8.907947754318986E-13
 -1.321552425696329E-11
 -5.472490970505688E-12
 -1.4661203035618866E-11
 -1.1861223893510362E-10
 -5.631682206581204E-11
 -4.8472363426679266E-11
 -9.370429956755173E-11
 -2.2701141945660195E-11
 -9.563167725020866E-11
 4.691122154514794E-12
 -1.4724305306269065E-10
 1.7255780647463744E-11
 -1.3814180798416012E-10
 -3.1204652004020275E-12
 2.410548944602535E-12
 -1.0025716363079526E-11
 -4.7287202215883024E-11
 -1.6598581182214035E-10
 -5.714991049607597E-12
 -2.598650231196447E-11
 -3.787126711984288E-11
 -5.455693990966876E-11
 -1.624050194416526E-11
 -9.896197880672329E-11
 -1.1605945034669174E-10
 -1.4136381274451158E-10
 -8.947264224289038E-11
 -2.8072901707770468E-11
 -3.351382530915624E-11
 -1.0946635365059807E-10
 -1.919515481000819E-10
 -2.935927152862632E-10
 -1.6721731352748383E-11
 -7.819389190041157E-11
 -1.7869207679338777E-10
 -2.4458412747884054E-10
 -3.642058246226206E-10
 -3.0999181718431E-10
 -3.1071139817031835E-10
 -1.3380825000711873E-10
 -2.3175270233476387E-10
 1.264172380005153E-10
 -4.370700594187535E-12
 -7.707622025633457E-10
 -2.8242468154355827E-10
 -2.6831554307186393E-10
 1.9865842245399342E-10
 -3.5000307446227685E-10
 8.232809851970636E-11
 -6.279218727955037E-10
 -1.1489090101746696E-9
 -4.4955487508190305E-10
 -2.5725363732195985E-10
 -2.4913751577434566E-10
 6.7402146639913015E-12
 -1.0266499453354622E-11
 -3.578083200372127E-12
 -4.461101757627096E-12
 -2.746782954914257E-12
 -8.085027099024298E-12
 -1.4762303696981832E-10
 -1.040271998031821E-10
 -1.3978476241846478E-10
 -2.3480018623471544E-10
 -2.3752895995293955E-10
 2.771642814377561E-12
 -8.712072540500472E-11
 7.424076923116531E-11
 -8.77945327003852E-11
 -5.827758589032163E-11
 -1.0071934590098753E-10
 -1.9382349823195339E-10
 -2.6517353494552587E-10
 -2.797570616254182E-10
 -1.6159013207194947E-10
 -3.039924793531839E-10
 -2.542938728067592E-10
 -8.38164393774392E-10
 -4.866940087683244E-10
 -4.0399224951730543E-10
 -8.342607848178301E-12
 -8.491349506243368E-12
 -4.805791921954958E-12
 -2.2858747991199174E-13
 -5.998736892568286E-12
 -5.4411634484957735E-12
 -5.0311827119126435E-12
 -3.649022509290941E-12
 -7.348945249663301E-12
 -3.602110486116193E-13
 -3.0527286690188227E-12
 -1.2246227344462707E-11
 -8.286978396164406E-11
 -8.27600920494677E-11
 -1.8359138948380587E-10
 -7.353900437973955E-11
 -1.1322743086225634E-10
 -9.3418000957046E-11
 -1.3526187799906404E-10
 -4.838037295113165E-11
 -2.3336891481172306E-10
 -5.04024075473605E-11
 -2.883070908134613E-10
 3.501850486620507E-11
 2.74128690327466E-11
 6.217673613276504E-11
 1.3741553474704918E-11
 -5.0086942659603595E-11
 -3.88936619765166E-11
 -7.571653977215657E-11
 -8.07461995681083E-11
 -7.947197252571822E-11
 9.055161567671868E-11
 -7.73074682733358E-11
 -5.102347255903392E-11
 -8.117447058473688E-11
 -2.727133709872204E-11
 -2.7630663822808977E-12
 -2.746317654571891E-11
 -4.624243016532349E-11
 -5.969142277949478E-11
 -1.2455521490623925E-10
 -2.1681739601500777E-10
 -7.38175558903151E-11
 -2.917622187087825E-10
 -1.5683023243626585E-10
 -1.8123943329230982E-10
 -1.7547163041039386E-10
 -2.7172029696334735E-10
 -9.327486228711489E-11
 -2.451064229977745E-10
 -7.51591967360806E-11
 -2.4268475675274626E-10
 -3.917687718733935E-10
 -2.1700387739669678E-10
 -2.3137830015143956E-10
 -5.698141356116475E-10
 -2.8792618565175093E-10
 -4.766759428670859E-10
 -5.154205476495252E-10
 -5.601447561293345E-10
 -2.7193130742297107E-10
 -6.260415599431997E-10
 -1.7947666267013113E-10
 -6.543113218018341E-10
 -6.196160834990641E-12
 -6.977967501626298E-12
 -1.2398173295785254E-11
 -1.7273204400550612E-11
 -1.4471062951155406E-11
 -1.9163972702842544E-10
 -7.058985371525078E-11
 -1.3122257821984384E-10
 -2.0768349294978786E-10
 -2.670299384657225E-10
 -1.3277389094295923E-10
 -7.265951975850712E-11
 9.56806567559685E-11
 -2.3307657314046964E-11
 -1.4853614703282678E-10
 -4.391770866106147E-10
 -3.771740750846307E-10
 -1.2808140917848507E-10
 -2.303572258143163E-10
 -1.5065601174087138E-10
 -9.356585431986495E-10
 -6.169865143125533E-10
 -3.6592531872950273E-10
 -6.671708520332325E-10
 -8.486491948026889E-10
 -1.3956903791969264E-11
 -8.062028828663418E-12
 -6.552863120495365E-12
 3.5013740887348405E-12
 8.033414184454876E-13
 -7.59051543281598E-12
 9.567069738159416E-13
 -2.6525060532708718E-12
 -2.3624119759958124E-11
 -2.3617920977579567E-11
 1.4800731830285647E-11
 -3.403703079475787E-11
 -1.2789489451047725E-10
 -7.375097673378878E-11
 -2.79482096122676E-10
 -8.148454341225763E-11
 -5.02882164481654E-11
 -9.480224379775495E-11
 -1.8210454678647048E-10
 -8.566646383990343E-11
 -2.696652858045485E-10
 -8.790070115744796E-11
 -3.296253307681814E-10
 -3.488722601168135E-11
 8.376936089967134E-11
 4.811015366079169E-11
 1.726471537183993E-11
 -1.2797316047724417E-10
 -2.7301507558591817E-10
 -1.386836144177561E-10
 -1.2759182788708242E-10
 -1.533663289183632E-10
 1.117163859054896E-10
 -5.6999907553600074E-11
 -1.3626758323295773E-11
 -7.771253992449767E-11
 -3.066341091643313E-10
 -8.24551982807273E-11
 -4.8638457298115945E-11
 -6.750174687477299E-11
 -2.8889228248116017E-11
 -3.072507769558338E-11
 -7.768371664282362E-10
 -1.0596051765092017E-10
 -5.154169213874094E-10
 -8.651535908469703E-11
 -1.4076217857668888E-10
 -1.1566821728992171E-10
 -1.951989979371423E-10
 -1.483569570387114E-10
 -3.820593055530111E-11
 -4.877778545145819E-10
 -3.164235774812904E-10
 -1.1259374297447753E-10
 -3.240553067733137E-10
 -4.4578119722336386E-10
 -1.5062787691930828E-9
 -5.816376719416901E-10
 -8.501672846801635E-10
 -7.521239056735364E-10
 -2.0074541465037195E-10
 -3.124652053448745E-10
 -1.00245545323711E-9
 -2.675307944128004E-10
 -1.3566824859511085E-9
